2835
Final Sol-Gel 45S5 N=2835, rho=2.1429, box=36.2742, NC=0.312, bonds=733, seed=42
O      1.587581    22.476980    31.702420
O     11.629170    26.571268    17.132160
Si    29.067924     0.663524     4.068552
Na     5.356216    17.900650    24.367333
Si    25.232010     8.130995    11.666043
O      7.597088    11.956422    28.150681
O     30.310340    19.943120    22.822755
Si     6.098411     6.835418    10.837613
O     23.389889    25.619017    32.093739
O     17.163008    12.219513    16.132389
Na    19.385180    22.691577    23.608598
O     24.255491     1.544340     0.411336
O      6.942021    28.980224    17.219882
Na    27.679035    19.428133    19.561933
O      5.875851     4.513753    34.999689
Si     9.524003    11.614468     9.117130
O     32.310822    28.364292    10.683147
O     25.763966     1.036190    20.141823
O      1.686588    32.463876    31.925459
Si    22.436391     0.985880    17.471139
O     11.425290    18.678655    31.159290
Si    12.268809     6.721275    23.987629
O     18.581481    32.301782    25.564358
Ca    19.755291    19.880536     2.651994
Ca    12.831657     3.533544    34.366821
Na    36.031948    15.465172    10.115510
O     25.826044     0.058886    29.340710
O     24.013282    17.190279    18.896843
O     11.941981     2.116767    16.956277
Ca    26.825448    26.123037    16.278804
O     15.982332    26.535836     6.551122
O     20.060337    18.833668    29.091941
O     20.702555     9.927827     6.199696
Ca     9.933629    24.492385    14.644944
O     33.665704    20.627436    31.067008
Si    27.399464    35.344723    11.242001
Na    33.921470     4.639489    26.099823
Na    35.385382    33.524234    13.343609
O     29.364876    11.618406    15.932332
O     22.560931    28.935277    16.745911
Na     0.667266    28.255494    10.798101
Ca    31.444173    16.608081    19.309672
Ca    33.094210    24.157326    34.723765
P     13.184975    25.754885     0.436005
O     12.955253    18.308815    19.526283
O     27.291327     4.419189    28.013128
O     20.713232    24.168947     4.661051
O     33.406387    33.272486    12.936285
O      6.386787    20.253020    31.961979
O     11.202928     0.804354     5.464544
O     31.634989    26.260214    17.661363
Si    31.922405    23.430901    15.963342
O     17.341744     8.192614    21.996632
Ca    25.241589    31.338779     4.980860
O     19.940618     5.090292    33.636086
O     26.306186    21.636617    30.514269
O     14.663040    33.493002    13.108194
O      8.248315    29.554302    23.653792
O     27.521338    27.953990    22.777702
Na    19.872268    28.510722     5.123326
O     31.476416    15.337588    35.576635
O     23.739412     3.824205    32.152613
O     33.260000    36.044759     0.446310
Na    18.806737    34.715517    25.867826
O     19.189394     6.719119     9.833629
Si     1.704982    12.406680    19.473546
Na    24.909512     6.933959    27.388439
Si    24.253750     1.535435     0.425889
O     34.098026    22.835255     0.243083
O     22.666618    18.641041     2.453799
O      7.961305     1.437919    33.173736
O     10.497142    23.937380    35.875775
O     17.684433    11.297189     0.726818
Si    15.634206    31.812881    18.339402
Ca     9.533957     7.770846    17.728934
O     15.530698    15.797390     8.060490
Na    32.260394     1.217743     4.850199
O     19.359356    27.448404    28.807883
O     19.058238    29.152121     6.952713
O      8.853616    26.359613    25.665501
O      8.709595     1.494352     6.419224
Si    17.609378    34.192288    23.144904
Na    34.628627    33.214340    19.528952
O     34.314623    18.755641     7.597877
O     33.203858     5.611288    10.464967
Ca    26.408228     5.426800     2.573095
Si    18.993314     9.489169    34.666011
Ca    18.997046     7.446582    16.648469
O     21.044428    10.652404     1.603140
O     35.442283    35.214395     2.124340
Ca    30.792904    11.675115    10.809691
Ca    10.295837    21.391848    32.015970
Na    30.425333     9.019252    27.255079
O     27.378933     0.852971    20.371166
Na     7.305746    20.792913    30.194528
O     13.982555    30.146690    22.995104
O      5.176127    11.219030    25.131352
Ca    22.461707     0.207092    35.753191
O     21.240223    11.547273     5.276188
O     34.878245     4.642832    29.792035
O     25.862472    11.841429    13.749867
Na    25.298563    18.028038     8.424387
P     34.593434    26.678184     8.298747
O     18.717802    12.613078    15.255731
Ca    27.402032    21.921238    26.095772
Na    10.472349    15.914187    12.299466
O      4.337592    36.224934    27.586129
Si    15.095553    24.208906    31.502591
O     11.582776    16.287847     2.338034
O     29.452256     8.940710    17.198257
Ca    15.257434     5.876134     8.469313
Si    10.062879     3.218745     8.924518
O      9.739134    19.421802     2.202885
O     28.943369     4.586327     5.981905
O     26.570986    15.099653    10.711687
Si    31.235635     6.119782     8.015922
Na    30.436551    32.618856    18.049136
O      9.204466    31.168275     6.016512
O     33.610704     9.392776    21.415511
O      1.203457    30.537954     2.506226
O      7.278276    26.065090     4.949950
Na    13.847183    14.529207     9.434044
O     23.512085    13.204068    23.513520
O     27.207052    21.978919    19.873821
O     12.115993     8.783818    12.142043
Si    33.301791    18.670879    27.329464
O     13.551906     2.150166    26.734109
Na     2.424938    13.273870     4.740769
Na     9.657468     5.075774    16.979947
O     33.577050     0.124132    27.971290
O     18.054851    10.958364    33.995061
Na    30.342660    12.211107    22.285843
Na     6.219929    11.734238     1.462669
O     33.295668     9.764495    23.398372
Na    21.533448    16.975941    28.853809
O     16.341258    15.565630     6.179148
Si    34.654631    17.137709     6.706904
O     15.728311    19.102699     5.359012
Si    11.651183    14.548001     9.466251
Si    33.026189    24.203193     9.071493
P     35.495497    26.477332    13.658647
P      6.572376    22.156913     0.574882
O     33.715096    20.047860    22.095337
Ca    33.824138     8.951121     8.997002
Na    36.165219    22.124902     5.691883
Na     1.420541     5.525203    36.234060
Na    34.848083    25.489509    10.415865
Si    16.851855    29.768563     8.932066
Si    14.375231    10.771955    17.295293
Si    31.660905    33.798807     3.642252
O     27.396149    35.351797    11.267312
Si    31.824959    10.882203    29.406855
Ca    29.802772    11.574304     0.987236
Na    19.987523     0.950543    11.097099
Ca    25.334053    14.169353    19.771142
O      1.164023    17.628479    35.599297
O     35.208941    16.228163    28.643472
Si    34.788636    31.538761    25.533162
O      5.126618    34.553819    18.780933
O     28.624259    10.324847    26.450379
O      5.417984    30.664212     9.653693
O     29.419199     6.366180    15.470760
Na     6.079979     9.473608    32.075171
O     32.070188     7.454113     7.000448
O     17.561963     2.518842     9.025916
Ca    33.158064    33.785918     0.888205
Na     7.043460    34.151863    15.202502
O     13.969661    34.910809    34.211013
Na     3.527306     0.950039    14.340898
O     33.655681     0.392256    10.434425
Si    19.624229    18.207295    24.996086
O     30.682645     7.138214     8.996553
Si    28.539950    15.999580    33.956376
O      3.613868    26.676865     3.364337
O     32.729677     3.216766     3.121433
O     30.558372    18.304127    31.915542
O     16.092248    28.761776    19.980188
O     36.144477    25.733174    34.422903
O      3.176829     9.309994    30.735400
O     10.683522    11.356590    14.920985
P     32.448166    12.524693     2.089464
O      1.943921    32.782546    15.271760
Na    11.411833     6.726114     2.148606
O     35.464016     4.847379    20.871960
O     13.561171    12.223984    18.503974
O     17.964153    14.930608    21.598213
Ca     6.318723    35.832830    11.349812
O     17.604643    34.187870    23.140622
Na    13.484258    20.276203    22.106636
Na    25.634119    18.194061    30.776669
Ca    20.925516    10.517482    34.583898
O     23.213113     5.003104    17.734879
O     27.819988    17.742210    33.756655
O     14.256340    31.118603     6.340543
Ca     8.467524    21.655070    36.189961
O     24.294881     3.206108    33.592352
O      3.237572     8.345486    17.144964
Si     6.458859    35.342683    17.785766
O     19.334130    22.582643    34.825337
O     19.148006    33.770775    35.898599
O      8.690652    27.215804    20.232907
Na     2.938096     3.884157    26.640498
O     14.742164    28.688626    31.898672
Na    34.500910    11.852174    26.196079
O     23.537676    27.676105     4.588046
O     28.563372     8.547946    28.860000
O      0.167798    16.576757     5.773765
Na    28.061876    10.021522    21.659166
O      8.036214    10.997476    35.618592
O     19.893202    14.888324     5.861828
O     15.864001    17.098981     3.722682
Si     3.498199     9.013116    15.314318
Ca    22.342241    20.421185     7.834128
O     10.903468    16.900222    30.751140
Si     6.051471    15.307334    22.628879
O     16.367398    11.517772    20.806281
O     34.433272    25.034913    13.651141
Si    20.498359    28.854786    27.965943
O     15.357127    14.773985    21.740975
O      0.569676    31.018226    22.603819
Si    24.380828     5.155820     9.684439
O     16.679214    10.704268     7.920509
Ca     6.841009    27.010766    12.461811
O     21.598679     2.197417    33.211617
Ca     4.290372    20.089469    23.038541
Na    25.590395    26.215976    10.607529
Si    28.118647    31.412854    18.485957
Na     1.927989     1.616175    18.955864
O     23.310975    29.777429    31.440588
Ca    21.767906     7.987037     5.124478
Si    33.226408    21.564504    23.819273
O     20.685237    36.242312     3.176853
Si     3.822232     4.394039    22.613128
O     25.859627    34.463608    32.209032
Si    14.204760    27.842433    32.686942
Na    31.953835    21.587093    22.371958
O     13.327355     6.022863    25.299038
O     36.188878    25.609821    22.147801
O     30.832749    20.230137    36.168436
O     27.773386    29.164505    27.265521
O     18.844550    22.606618    32.887040
Na     0.656694     0.655159    23.199431
O     31.683121    23.843481     2.757451
O      1.416239     7.065460    22.580627
Ca    13.259925     0.668956    28.493722
Na    32.495488    30.492810    15.546957
O     35.139231     1.398305    22.502519
Si    14.768919    29.193473     6.440765
O     29.721503     6.551008    35.710617
O     17.596587    16.676691    11.172051
O      6.241076    15.666664    14.711197
Na    10.037096    11.763793     1.991174
Ca    10.874263    21.702144    35.386452
Ca    28.945735    19.760340    17.281470
O      8.489510     9.529210    17.708596
O      1.115488    14.209048    19.091516
Na     6.979463    23.624264    15.460600
O     15.980267     9.504083    12.282515
Si    34.852013    25.757693    17.287316
Si    17.696186    33.239356    17.267736
O     15.853485    14.013504    13.118646
O     21.525860     3.787915    22.135072
Na    11.561004    10.049702    19.247983
O     14.997947    28.645066     1.686411
Si    30.049798    23.090659    27.521817
O     28.782890     7.765084    34.542829
O      8.533155    16.940374     5.365411
O     10.851763    10.894929    31.171752
O     12.769660    13.961738     3.845047
O     12.265870     4.707059    19.093448
Si    22.699255     6.000353    12.544999
O     21.308293    21.006287    17.942708
Na     1.245187    14.953457    28.342393
O      0.288250     6.010338     1.649314
Na     8.510017     3.170240    10.795525
Si    16.085392    17.122385     5.627015
O     10.311738    18.866674     8.627550
O      1.224698    14.591612    11.336814
Ca    17.415424    27.632687     7.499100
Ca    31.212574     3.947164    16.816584
Na    13.167509    20.279175    12.916213
O     18.329238    15.992849     1.208149
O     16.894463    33.835374    24.578088
O     33.253483    25.715012     8.918728
O     15.043766    24.186280    31.497245
Si    16.408608     5.780422    17.744288
Na     7.609158     8.816518    10.792584
Na    10.324122    16.778018    27.657965
Na     3.985337    14.842418    18.321351
Na     1.760894    17.175142     7.111835
O      8.300360    13.833033     5.684273
Na    30.565136    26.909788    19.387996
Si     1.349408    32.583895    25.172654
O     19.696141    13.745613    11.342329
O      4.812990     4.945420    19.445888
O      6.157480    21.186289     7.536131
O      2.720659    22.078267     8.188512
O     16.672225    20.022227    23.114443
Na     1.779926    22.313001     3.361346
Na    25.883824     3.417578    12.349781
O     30.142314    14.423570     0.280178
Si     9.606328    25.487539    35.259940
Ca     0.532759    31.821264    16.859009
Na     5.274331    12.091379    13.516563
O     33.555044     0.060106     3.161133
Si    23.159676     0.909820     5.500959
Na    30.689497    33.160570     9.776657
O     24.328837    19.966956     7.614889
Na    12.003652     9.947038    35.813559
O     24.201113    12.131638    16.384320
O      5.872401    25.182408    16.575688
Na     1.043305    11.238884    24.853146
O      7.046032     8.572578    15.899329
O     15.996227    16.135355    18.441493
O     24.797805    35.205954    26.868707
O     17.052337     7.829642    13.888639
Si    30.736095     1.736223     6.488912
O     30.227907     5.588060    23.023044
Si    33.520891    11.237573    21.175735
O     23.388362    23.285478     3.389919
O     25.030759     6.629431     7.036801
O     23.220327    35.350548    22.487821
Si    21.890676    36.264461    13.904340
Ca    17.520348    15.182980    14.979144
Na    27.601739    10.493624    17.789563
O     21.870787    31.486506     3.419611
O      1.518787    13.530642     8.917687
P     17.460201    30.338888    11.481976
O     27.467299     7.597696    23.829222
Si    14.871086     1.462457    14.319663
Na     9.217598     4.463175     6.081518
O     10.849580    34.016955    22.185198
Si     5.464036    26.779839     7.111095
O      9.442189    20.498242     3.352152
O      2.861327     5.303291    21.281482
Si    11.489656     5.354261     3.376221
O     18.581569     5.068946    24.969732
O     12.473676    17.291795     6.517469
Na    36.086857    27.509666    21.370492
Na    35.242165     9.987318    23.005141
O     11.059847    11.127359    12.540611
Si    10.990171     4.389178    20.409683
Na     0.007871    13.989733    20.710696
O     25.269020     8.172938    11.681721
O     31.389016     5.906772     2.170266
Ca     8.203436    12.876747    19.683463
O      6.041308    22.198689    20.886195
O     28.081453    31.429808    18.550435
O     11.464238     5.352438     3.352401
Na    10.792776    30.412826    12.185038
O      0.148988    32.070407    26.241355
O     27.783290    15.090109    33.699928
Si     5.300037    17.388667    14.949903
O     30.595403    35.923352    27.303534
O     10.151593    13.149551    14.289058
Si    15.113912     2.806918    24.751319
O     18.430550    35.375322    12.506569
O     26.526265    23.921328    31.917311
Si    24.357398     8.071690     3.062545
Si    27.550920    28.385711     6.669432
Na    18.710813    25.433998    11.916565
O      2.465562    20.064929    29.232040
Na     9.210664    35.655135    30.550209
O      8.089239     4.973457    19.651037
O      5.918616     4.480189    17.979494
Si    18.094210    34.493770    20.432758
O     19.649747    21.280217    32.011878
O      6.457484    19.918382    21.425364
O      1.211476     4.881335    26.231524
O     15.466823    22.195116     9.335085
O     18.522542     3.882808     9.118679
O     20.131753    15.231329    22.284272
Ca     0.482205    10.532631    21.669322
O     12.777674     4.842201    20.558232
Si    19.026616    29.386794    11.718532
Na    19.910729     6.251117    23.740412
O     10.733363    34.939409    17.149481
Na    12.220238    33.572660     5.627434
O     31.884553    23.144636     4.526013
Na     5.130484    28.147786    13.145761
Ca    13.370211    31.676616    12.859870
O     23.595237     0.025746    34.127810
Na    30.563394     2.258332    24.885707
O     10.536133     4.779912     7.702145
Ca     7.248839    20.164598    33.907675
O      3.329745    35.974699    23.318252
Na     4.636485    19.585681     0.726551
O      4.523363    24.522850    16.360241
O     11.265250    30.504792    19.928156
O      8.427247    10.034026    24.272334
Si     6.062055    30.801439    27.701299
Na    10.319654     9.250943    13.424865
O     15.463849    16.648942     1.717714
Na    16.012922    16.414297    26.289134
O     29.718186     1.958952    18.100148
O     10.757103    13.950979     6.818309
O      4.517878    28.670603     4.612455
P     16.607289    14.666141    19.294617
Na    29.853450    36.242141     1.702795
Na     2.110949    12.706704    10.204280
O     24.501932     3.671480     8.953793
Si    35.727422     7.461571    18.807612
Si     5.921807     1.264209    15.615297
Si    17.974862    14.961066    21.592136
O     27.774357     3.953301    33.420861
O      2.055493    33.219383     2.178199
O     19.787803    29.566211    10.031445
O     21.836478     5.832236    34.063117
O     35.819903    13.442233    15.792603
O      5.279597    23.896051    33.962215
O     29.886462     0.119074    22.203629
O     19.398186    16.073463     4.586564
O      2.420128     5.189468    29.858709
O     15.370883    18.820115    35.936876
O      0.100592    34.704412    14.898977
O     23.181635    16.202314    30.205886
Ca    23.034738    21.021956    31.589310
Si    24.278546    15.278128    29.628078
Na     9.093620    15.973910    17.444830
Na    18.995806    17.643304     8.610425
Si    27.774321     3.949473    33.443456
Ca    29.827470     1.909737    20.737185
O      3.038309    13.374476    24.685941
Na     4.049564    12.159568     9.637338
Ca    35.155713    33.083609    22.582188
Ca    33.132429    16.025102    24.606276
O      8.444987    30.772795    15.509796
O     34.279691    19.208423     4.345607
O     31.864635     9.905309    22.279515
Na    30.096662    29.028146    10.814733
Si    23.954389    11.538498    28.979607
P      3.881050     2.361857    34.927421
Ca    27.206570    24.555223    24.714234
Na    12.516444    35.967695    17.783714
O     12.217264    34.047941     1.134036
Na     7.252133    21.643728    13.686503
O     13.117860    15.943657    18.447914
O      8.156094    27.857941    18.378325
O      8.487494    10.402593    13.398630
O      2.589439     2.545867     2.269003
O     13.548734    12.754645    12.059386
O     20.102518    11.329658     7.311299
Si     7.684551     9.138919     1.140116
O     18.634006    32.453935    15.889307
O     21.216174    32.858368     6.740830
Na     7.284678    20.216231    15.611230
Si    34.625610    14.015174    26.491733
O     16.803922    15.136696    13.100762
Si     5.471485    21.404823    32.499353
Si    21.712521    25.007942    14.578763
Ca    13.236681     0.761435     9.429241
O     27.146898    33.635329    27.821388
O     23.131183    35.553310    13.910367
Ca     2.698284     6.013582     4.290990
P      1.698448    21.367782     0.582478
O      1.834277    35.542459     7.814736
O     13.700798    10.595898    15.917790
Na    22.178158    22.617780     1.249917
O     11.662932    28.919498    29.102944
O      8.318761     2.252895    22.262015
Si    36.140652    22.122740    32.266125
O     15.707013    14.601646    19.469694
Na    11.611556    17.370457     4.275172
O     20.647270    20.930610    30.796069
Na    17.792961     5.849966    33.631624
O      3.213022    23.119753    34.242660
O     17.618614    34.733178    16.906445
O     14.741049     7.004464    10.206028
Ca    30.590357     5.414975    11.247999
O     27.212965    17.017466    28.349942
O     13.544448    21.838945     9.472995
Si    27.198061     9.726218    29.825992
Na    23.970170    34.699035     7.671464
O     18.647872    10.693515     5.086126
Na    16.410473     3.891365    23.011938
O     15.930357    23.537477    29.907269
O      7.225347     9.161798    36.025441
Na    16.505706    14.946123    11.097005
O     35.069321    31.768007    27.566452
O     17.011198    15.860860     9.393137
O     33.667211    27.880111     1.147550
Na    19.402750    14.780116    12.935805
O      7.886039    12.248605     4.498811
O     17.640696    10.567852    12.342111
O     25.676831    20.510526    24.782623
Si    14.264633    33.265608    18.426092
O     32.373506    35.274536    26.883055
Si     2.799531    11.941845    25.900467
O     34.517909    16.902054    26.913973
Na    25.370443     5.676853    30.876390
Na     0.867620    31.366371    14.060596
O      5.505341     4.148140     1.336251
O     20.335871    21.359739     1.405756
Si     9.515906    25.597098    30.968676
P     18.376777    11.303915    17.498877
Si     9.012170    12.847585    13.258078
O     31.028037    21.005701     7.195141
O     26.088433    16.238231    12.955864
O      6.171452    14.441026    16.188380
O      0.387802    29.533765    17.506223
O      7.915721    22.887172    34.193534
O     16.847193     0.150891    32.538538
O     15.744774     3.327359    30.983224
Na    24.770559     0.301948     7.527779
Na     3.619655    27.085617     0.607693
O      5.769249    16.664162    10.007693
Na    27.044102    22.006561    28.456756
Ca    10.203360    26.135489    28.941330
O      3.954081     9.218258    28.951425
Na    22.585176     8.468155     8.251488
O     30.985927    27.365982    33.917385
Si    14.655135    24.030736     6.044778
O     34.558565     4.920959     0.281889
Ca    35.408010    24.196179    31.417774
Ca    24.853177    26.759462     6.142634
O     10.121487    27.518886    24.898479
O     30.442084    23.810095    20.404884
Si    15.298538     7.903020    14.322321
O     11.030185     4.998221    21.159509
Na    11.314429    32.324535    24.136948
Si    24.880152     4.622100    18.878575
O      4.429702    33.983960    32.511156
Ca     0.481563    33.404743    27.779101
Ca    27.765364     1.333707    10.221570
Na    10.359785     0.824039    36.269712
O     16.433426     5.775916    17.754959
Na    18.244564    27.655591    22.258771
O      9.463354    23.136672    32.917775
O     15.852829    28.733727     8.635994
Na    25.334471    25.662206    19.496322
Si     7.682596    15.544668     6.296055
Ca    27.831382    32.835799     6.418834
Ca    12.015078    26.818969    33.550857
O     29.219107    22.124399    27.543895
Si    16.557005    20.060770    23.282422
Na    25.077255     0.422821    32.381118
O     29.287080     3.547430     7.557133
O     15.968369     0.225582    16.813745
Na    32.625382    27.309484    15.849412
Si    28.623589    26.984031    29.321537
O      5.092709     8.059907    24.067396
Na    30.476392     3.654659    34.051550
Ca    33.109739     7.206302    34.282389
O      7.310698     7.281111    17.321120
Si     5.740184    28.009792    18.278271
Na    32.629939    34.916992    16.215345
Na    15.132198    11.249904    14.604869
O     32.018210    20.929822    32.222436
O     21.093976    16.400136    13.059665
O     33.995255     1.578178    19.067189
Na    10.772700    24.625719    10.776975
Na     7.783578    27.873398     1.173143
Si     9.858403    33.738633     8.592745
Si    24.420617    29.961463     7.500142
O      7.491678    27.730161    35.337543
Si    34.351473     8.266771     3.479167
Ca    11.295837     3.374357    25.153102
O      9.507441    25.564055    30.978874
Ca    12.031061    30.036483     6.458402
Na    31.852221     6.288052    13.500572
O     11.782531    19.635181    21.173580
O     25.532076    22.911734    23.611504
O      3.772413     5.937355     7.942766
O     25.195805    29.022177    16.083179
Si    34.394672     5.036829    34.685296
O     13.977847    17.555111    22.682059
Na    11.805683    35.804582    20.287954
O      5.495686    32.711183     5.162490
Na     8.562504    30.204068    20.279747
O     26.646549    23.910370    27.502314
Si    30.417358     1.499236    16.563799
O     36.067184     5.392161    17.170260
O     27.388394    28.732644    11.762505
O     31.399509    20.344294    13.244075
O     34.956281    23.627760    11.101706
Na    16.607474     6.528023     9.494277
O     33.242728    28.532313     6.322341
O      2.722074     0.510301    24.881317
Si    31.934951    32.208328    19.145467
O     23.820361    24.456683    29.034609
O     23.189050     0.991611     5.604166
O     10.263301    27.896231    32.337454
O      7.351978     9.152324    33.542334
O     36.255700    35.926347     1.006867
Si    25.879608    16.214169    23.007024
O     23.163559    26.302838    35.778098
Na    31.139099     8.733018    11.034400
O     16.878039    32.775115    18.249609
Ca    29.002972    22.724892    17.277086
Na     7.579622    27.083627    22.313980
Na    20.516909    36.035039    16.146320
Si    21.529527     4.303758     4.913425
O     33.297866    22.410113    16.681835
O      0.213843    14.893215     8.247944
O      5.717375    33.940111     1.285987
O     33.997578    15.831753    34.675231
Na    27.288813     0.208347    16.938080
Si    32.474809    17.501128     2.506607
O      4.009524    24.487280     7.908754
Ca    26.655589    32.084024    34.121649
Si    23.533756    27.705778     4.590834
O     34.082450    13.692567    28.384083
Si    31.257284    27.263527    29.391176
O     17.851902    31.498069    23.905563
O      2.030077    25.907827     3.931410
O     16.084717     2.398818    19.056410
Ca    12.701528    34.318603    29.023279
O     18.834040    34.453920    33.568425
Na     2.208155    23.810731    23.120089
O     16.067694     6.083963    20.822687
Si    35.404544    13.267070    23.156097
O     27.190375    35.853483    35.195191
O     34.131591    18.854090    13.385174
O      1.602559    32.533371     9.744130
O     30.815399    17.797488    30.005139
O     28.273671     3.927614     8.352361
O     12.456359    29.406511    13.445888
Si    36.245515    25.397133    22.029997
O     25.239415    20.018111    27.893696
O     24.553554    11.138644     3.194105
O     22.267682     8.547242    23.304647
O     28.242779    27.153164     2.093149
Si    35.186500    16.236986    28.657566
O     29.165944    28.730630     7.947041
Na    29.394563    10.278891    28.522878
O     29.403986    34.135606    28.971569
O     33.594686     6.028196    32.259388
O     16.141938    35.298880    22.939844
Ca     9.533627    25.953811     2.991475
O      6.196367     3.249388     7.327442
Ca    14.319426     5.555668     4.773501
Si     0.573103    27.198362    30.273682
O     13.057291    15.433553     6.307139
O      7.481247     7.568397     2.246125
Na    21.819298    22.854309    18.888783
Ca    23.502359    21.775776    21.434948
O     21.709354    12.565162    16.641849
O     14.864775    14.575486    36.259044
Si    15.753700    13.343820    34.206401
O     32.854871     5.254454    22.015562
Ca    30.962169    28.957307    18.883627
O      4.520491     0.875078    24.244036
O      6.328752    12.251462    19.850624
O     29.465233    35.114958    27.505871
Ca     3.147164    26.562098    31.808981
O      9.119034     0.791120    16.146649
Si    10.157596    10.848739    23.858387
O     13.566419    10.996382     6.072803
O     20.823627    16.000965     8.904004
Na     7.329076    11.893255    33.099183
O     21.955422    21.677632     4.961375
O     34.708162    10.766220    15.182159
O     11.969399    35.445031    32.846311
O      2.879485    35.627142    16.167908
O     25.640714    16.186661    11.250882
O     23.509151     1.119387    16.426840
O     18.821038    17.821779     0.878748
Na    31.814995    35.352272    28.822159
Na    14.025216    19.018193    32.668223
O     10.627426    11.014944    25.769849
Si    10.933634    19.599274     3.887962
Ca    22.232743    25.503714     4.617137
O     12.093768    21.860571    25.867360
Na    12.407184    34.324973    12.665395
Na    27.023282    11.452124    12.215685
O     31.011775     5.894550    16.617721
Ca     2.347460    33.075714    33.759988
Si    25.365252     3.571047    35.084005
Si    15.847142     8.341675    28.804233
Na    23.629116    29.258332    11.635460
O     28.034777    23.451196    18.826576
P     21.880769    31.494755     3.431114
O     30.971057    32.117248    35.221244
O     34.342905    34.813775    14.721108
O      5.330891    10.199736    35.020699
O     27.733894     4.505991    29.702715
Si    16.334949    11.510583    20.855561
O      6.243996    18.291001    35.400323
O     35.436525     4.982350    16.343623
O      2.920225    31.523083    25.066612
O      6.200578    28.478321    30.622241
Na    33.884233    29.183672    22.825607
Na     1.301635     3.781448     3.363167
O      0.499127    12.491063    22.148905
O     22.253287    17.107152    32.714655
Ca    30.689170    17.550718    25.903432
Si    24.688524     4.770933     7.514895
O      2.593813    15.044811    15.067244
O     17.204827    28.934703    29.784358
O     15.629705    30.843550    35.522779
O     27.558313    15.475854    23.416814
Ca    18.786286    25.692338    29.670287
O     28.601820    17.311607    26.961811
Si    28.275782    34.237491     9.824189
Ca    33.467062    25.337964    29.391168
O     13.892897    20.083278    11.077835
P     21.987727    23.264230    15.213245
Si    31.887354    23.161002     4.520169
Na    20.577779    25.580244     0.158925
Na    12.638273    32.866998     8.551382
P     35.635020    32.813615    35.228809
Ca    23.910162    29.576249     2.830172
O     19.927679    35.260250    34.980862
O      6.116100    25.244551    13.219236
O     16.164877     6.074085    23.535231
O     16.021066    25.609124     5.484600
Si    29.270934     3.559939     7.544207
O     10.848923    13.561622     1.749184
O      0.026403     8.257007     4.495452
O     30.346464    17.469079    35.592723
Na    35.957935    29.680366    11.897635
Si     1.799510    34.318773    14.156836
Si     6.182528    28.491410    30.637580
O      4.696416    30.238206     5.839152
O      7.906297    33.459872    17.155306
O     22.451538    18.578317    35.048118
O     24.242723    28.412077    34.176454
Na     5.950820    30.046713    18.552702
O      0.360660    31.633584    11.994877
O      8.995743    21.596736    33.941871
O      5.904275    17.942594     8.531740
O     30.799736    16.245319    10.487632
Ca     1.368601     9.483960     1.738080
O     20.329427    23.342612    14.520680
O     35.810791    28.578479    25.716388
O      2.209672    34.839106     3.126651
P     33.186625     0.212724    34.321001
Si    33.152166     5.642532    10.449404
O     29.582734    30.796545    17.508866
O     31.256483    34.951365    11.730012
O      7.248157    27.212708     4.269477
Na     5.252979    24.215726    14.584305
Si     1.938875     5.567985    33.281150
Na    12.005312    13.464437    22.265137
O     33.088123    26.605352    31.864168
O      7.029889    31.712222    10.001733
Ca    34.909362    28.792277    18.847631
Na     7.196723    22.692052     9.768879
O     36.173972    36.150314    11.548177
O     31.664350    33.258599     7.465634
O      2.922258    20.211179     1.241179
O     15.347931    32.509763    11.445469
O     14.288756     8.851974    27.265724
O      3.394832     4.371108    28.470010
O      8.311213    26.445943    36.204769
O      3.025486     7.505280    15.548538
O     17.888849    34.786585    14.008399
O     11.113069    32.791905     1.255672
Si    28.854212     3.595683    17.503530
O     28.779141    19.323872     0.914492
Si    24.860345     0.265243    15.905625
Ca     5.142996    15.013328    34.959578
Si     1.696479    12.712238    29.187892
O      8.919851    10.940863    17.107431
O     31.826541    10.854701    29.420580
Si     7.614622    28.479202    30.488507
O     32.132102    19.808303     1.209618
Na     7.350797    26.682889    16.110822
Si    15.572382    16.988931    36.135806
O     16.524478    28.458908    16.127494
Na    18.955548     8.406720    13.580736
O     27.502729    30.283722    28.348668
O     21.501161     1.215828     4.553454
Si     2.495201     5.466617    24.729265
O      6.809377     9.153369    17.706332
Ca    23.091605     4.274586    23.512421
Ca    17.860326     2.507040     6.900340
Na    35.777954    17.471552    31.945547
O     11.947310    27.379940    22.438503
Ca     6.623398    13.944963     8.873940
O     15.903278    11.321705    18.086192
O     10.944197    32.054022     6.329366
Ca    24.717418    20.209450     0.304692
Na     6.855199    34.539817    36.051117
O     13.512405    27.576971     9.794891
O     34.156054    18.530974    19.801799
O     24.841159    15.644604     8.759818
Si    32.870198     4.993092    31.878480
Si    23.509656    14.413634    26.657284
O     34.916907     5.312037     7.967206
Na    25.299994    18.726713     4.305487
O     21.599767    13.142180     9.202206
O     24.146754    28.810832    14.506006
Na    29.710501     5.705543    29.537504
Na    29.475747    26.210623    23.100296
Ca    11.753847     3.340146    15.351874
Na     9.882898     0.331974    17.933268
Na    32.400158    19.417661     5.671192
O      2.419056    33.165222     4.101890
O      0.551212    16.687775    27.791893
Si    19.561773    20.391095    17.973356
O     33.183228     0.203430    34.326863
O     13.893203    20.602135    33.929265
O      7.114760    23.184669    11.761586
O     15.650559    24.478418    12.511677
O     11.023889     3.381616     0.850238
O     27.185532     8.121285    32.373316
Na     2.240862    15.202707    20.689295
O     22.630949     2.682086    22.131472
Si    10.133449    31.606351     1.388469
O      1.946309    10.897103    28.804747
P     27.728685     4.518173    29.719976
O     10.446393    32.407690    16.587431
O      4.115004    16.784331    22.261584
O     25.588454    10.974305    30.640442
Ca    20.088606    30.939564    23.089523
O     28.935091     6.401862    32.229552
Na    30.018487    16.247973    30.878832
Na     6.062809    12.898990    17.934839
Si    23.753212    21.034819     5.414851
Na    30.392934    35.896351    13.966264
O      8.728793     0.741825     8.101330
Na     3.482483    28.236836     7.994779
O      8.133051    34.210060    29.125368
O     36.149936    30.111764    32.359856
O      7.808168    19.758053     2.524587
Si    25.574418    20.817599    18.087016
O     10.942796     8.618206    11.260920
Si    34.916958    35.081164    10.623141
Ca    28.991221     7.923895    30.902969
Si    31.400475    20.371025    13.232197
Na     5.654279     9.983962    30.136025
Na     9.834595    18.271723    29.631831
Na    30.915869    25.460971     7.853761
Si    14.127699    25.656197    32.047508
Na    12.346007     2.262487    23.766742
Na    35.165061    19.489178    32.963763
Ca    20.469809     5.670911    29.720066
Ca    34.728822     3.341903    19.745098
O      9.472329    31.622933    24.459112
Na    22.692222     1.086029     2.944305
O      0.980842    13.685114     7.221609
P      0.985832    13.693303     7.235072
Na    21.533273    28.717295     8.636667
O      9.997974     2.221131    17.508030
Si    18.769116     3.649471    29.841071
O     30.836313    11.270546    19.154673
O     24.867303    12.509737    26.703789
O     24.038662    25.152201    35.139136
O      2.163811    22.863238    30.467013
Si    23.511913    30.495251     6.468635
Si     3.603644    23.265543    34.438696
Si     2.406255     8.539240    22.852680
O      9.918226    11.392625     7.288180
O     34.867159    15.740958    20.384157
O     16.917582    35.284215    21.625288
O     17.558606    10.755687    16.073112
Na     3.712054    29.898498    30.090123
O     29.716976    35.674985    30.228315
O     21.884144     8.401854    15.146682
O     21.804212    30.175812     3.216578
O     18.137845    19.361312    22.374976
O      1.438719    33.809531    30.125628
O     17.860657    21.086454    32.322420
O     13.389355     5.687471     7.903004
Na     9.955843    30.190481    29.494783
Na    12.439503    13.243249     7.542466
O      1.236226    27.724584    25.126774
O     23.323557    14.902841    13.733377
O      2.611955    13.239936    18.399491
O     23.985713    24.635576    26.230087
O     27.372317    12.517187    31.520680
O      4.490244    25.626277    12.084420
O      5.249799    33.552200    15.675233
Na     8.328427    18.632707    32.219928
O     35.525803    20.768987    30.840799
O      4.136648     9.615534    32.334094
O     24.699324    12.536398    32.828999
O     24.676098    15.008303    22.156780
O     12.543024    34.229588    31.556438
Si     5.181196    19.648137    33.269368
O      9.756043    10.181654    20.733260
Si     4.401703    14.774673    33.168433
O      1.972048    11.575844     8.591166
Si    24.799984    35.048344    22.387699
O     13.365359    29.577717    18.196652
O     35.910311    22.751986    14.031034
O      5.683072     9.778428     4.281302
Na     5.628904    31.133625    23.692343
O     26.229879    28.911808    32.630347
Ca    17.103153    14.862430    35.279479
Ca    33.676836    21.033245    18.352558
O      4.744074    36.203288    17.640732
O      1.173103    14.251949    32.795483
Na     9.089281    10.836758    29.414536
Si     8.705572     1.506076     6.418226
O      4.740569    27.518899     9.300253
O     33.409320     1.080631    23.461385
O     24.880833    27.250155    20.618101
Si    35.469586    35.209845     2.118960
Ca     8.213579    27.125352    14.001020
Si     0.889376    35.085827    17.436091
O     11.817689     1.032160    14.204526
O     15.117229     2.760529    24.710227
O      6.314197     6.500348    29.682710
O     23.010170    34.086531     9.287545
Si    11.145243    21.263784    14.023442
Ca    17.395903     2.640342    33.417291
Na    11.083339    18.134188     1.030378
Na     5.050232    28.612657    15.671396
O     32.487694     9.103958     0.906554
O      7.674548     9.132011     1.129052
O     30.072110     7.400979    14.072278
O     32.353165    17.829032    23.531307
Na    17.803130    17.905217    35.671638
Si     3.331370    23.527858    15.300656
P     30.409022    32.215804    15.816183
O      8.655732    19.348689    28.247249
O     31.827379    22.416419     7.701774
O     15.491166    34.281754    21.824087
Na    28.663377     4.346364    21.307271
O     29.635800     8.339748    12.362586
O     14.560610     6.226418     6.668288
Na    35.452419    24.059311    20.080169
Si     1.093819    14.008657    31.846591
O     15.587755    30.564018     7.807073
O     12.502673    11.899006     5.823625
Na    17.262200    17.297328    31.285839
Na     5.454903     1.145086    20.256822
O     10.619929    14.841413    18.067003
O      5.608803    26.709857    31.175368
O      8.153651    28.740628     2.506305
Na    23.176895    32.006488     1.099230
Si    30.443580    12.618427    30.867778
O      5.662724    26.278039    14.936933
Na    28.718742     2.598378     1.729164
Ca    35.356452    29.501284    13.893170
O      7.278500     5.524304    17.576906
Ca    32.236818    25.884668     2.423012
O      7.375614    12.687090    14.184270
O      5.180031    26.023945     2.455559
Ca     3.771438    21.356794    36.128554
O     31.498014    19.216638     7.993444
Na    23.272285    10.212744    16.520404
O     34.360898    26.916024    18.842658
O     34.182961     3.141256    24.597506
O     24.639039    22.622643    10.243038
O     32.909261     4.941932    31.821234
O      8.207640    17.390454    28.634356
P      8.748826     0.762632     8.113863
Na    28.742687    30.585060    22.204155
O     20.616302    25.399123    24.270549
O     22.983156    27.698081    28.038688
O     32.039514    18.979944     2.511439
Si     5.256758    10.209488    24.717659
Na    10.830610    21.226037     8.291209
O     10.645992     9.048805    23.385336
O     21.195876    13.745382    22.243634
O     31.380887    19.092614    30.538152
O     14.647476     3.514188    21.916645
O     14.383586    29.453942    27.461067
O     22.887132     6.901162    14.243113
O     23.195009    17.823874     8.816090
O     14.227961    14.832810     4.892458
O     10.226250    10.849777    23.838096
O     14.781082    29.066238     7.424625
Na    24.939434     6.070717    12.975713
Na    16.505286     6.072991    13.210409
O     33.931375     0.012416    20.099582
P     31.138839    20.844674     7.368204
O     31.627725    31.767065     8.632960
Si    23.409090    13.040798    23.562190
Si     2.634083     3.442222    35.818642
O      7.087515    32.674695     0.566768
O     19.233984    34.849073     0.618081
O     18.084351    15.505300    19.801723
O     16.620866    28.220146    36.068671
Na     0.135169    23.985589    15.468326
O     33.169212    27.420401     9.085052
O     29.114430    15.863981    35.948152
O     21.262782     6.907389    11.799149
Ca    24.385511    18.966288    29.285114
Ca    25.373698    10.717291    22.854732
O     19.991608    26.650122    22.790125
O     30.440793    13.821062     4.532131
Na    27.606651    13.243170    36.119554
O     14.880086     1.462997    14.325211
O     16.647221    14.676183    19.326178
P     24.271999     9.637943     2.306501
O     26.918466    25.667054    26.853370
O     17.439590    18.604363    28.767575
O     18.177433     8.406770    11.734543
O     27.161322    22.630515    23.976652
Si    23.211122    24.421980    15.231987
O     21.739395    16.415716     4.250217
O     24.408535    17.694747    21.389933
Na    20.964749    25.472403    33.539644
O     26.182738    15.419185    21.166551
O     27.886802    25.313366    29.746440
Na    10.367552     6.717356     5.932106
Ca    25.347758    14.693652    32.483438
O     11.129588    21.532249    22.869142
Ca    16.330662     8.643172    18.000959
Si     2.408478    33.184414     4.139480
Ca    34.813695     4.257693    27.838929
O     31.067888    27.741038     0.954724
Si    13.671658    17.741792     6.695604
O     24.609325    17.020022    29.193839
Si     8.813499    30.410217    23.134377
Ca    16.874034    20.064389    29.972869
O     20.514191     7.932586    24.948700
Si     8.942862    10.966085    17.070594
Si     0.622198    29.082457    19.462801
Ca    30.148372    18.245032     1.840487
O     17.600458    14.131384     8.029065
Na    27.264719     6.951007    36.051153
O     12.325528     6.692513    23.981894
O     32.328972    28.415970    28.415216
Si     9.506879     9.054746     5.772408
Si    35.545059    18.069293     5.127447
Si    32.686699    26.632011     9.747692
Ca     7.229770    29.224640    11.722824
O     23.045254    31.003750     4.113600
O     18.098967    34.465578    20.448729
O     15.718087     8.006883    21.186750
O     10.701734    33.022906    10.426230
Si    26.070081    16.240834    12.977134
O      4.384405    34.587347     6.569411
Na    15.865189    21.561317    30.372691
O     32.824704    16.692436    27.345802
O     17.925479    26.921488    33.104674
Na     2.795474    11.895675    33.265235
Na    25.266553     4.584104    27.608450
O     20.159311    28.269496    12.721125
Na    32.194844     4.914445    20.065561
Na    11.267368    17.424648    33.819597
O     15.092129     6.822979    30.554401
Si    26.017827    28.592196    21.231968
O     19.948317    17.873116     1.644775
O     20.936206    14.698017    15.655294
Si    14.635503     4.652227    20.766573
Si    18.212050    18.024546    18.864101
Si    10.401335    20.246434    22.233844
Si    31.408041     4.374188    26.529117
Na    36.148713    20.439978    17.160781
O     23.568380    10.159214     0.780561
Si     7.238083    27.204127     4.258676
O     28.200226     3.902913    34.358130
O     19.645542    18.202022    25.003406
Na    12.287586     5.154983     6.320493
P     18.682634    14.839986     9.456007
Si     7.807117    19.716506     2.499838
O     22.177207     6.094026     4.430370
P     27.466890    29.832464    11.053930
Ca    20.016476     3.777781    16.378038
Si     2.303460    14.159278    34.069929
O     11.909761    10.171911     5.540021
Si    18.463129    31.859204    17.548671
O     31.944035    12.747858    19.723568
O      9.147188    14.743592    13.456910
O      6.998139    28.752296    13.624647
O     10.895643    19.613738     3.891996
O     20.955681    12.528495    35.977871
O      3.190967    13.606829    29.941156
Na     1.314292    15.411617    16.959972
O     10.081645     3.236130     8.913553
Na    27.947512    26.861517    14.719770
Si    33.842508     0.025367    20.176571
Ca    20.310199    10.101257    20.939172
O      0.355363    24.018976    21.737123
Si     6.201260     6.212296    30.052135
Na     1.521257     5.060282    22.765402
O      4.482895    17.479653     8.823213
O     24.400286     5.123222     9.680655
Si    32.430884    27.084401    36.079556
O      4.953349    31.923882    30.528709
O     34.477545    29.366493    17.311926
O     18.745558    18.210916    20.169501
Na     5.729063    26.488232    34.808405
Si    29.601616    10.803604     4.932891
O      7.553888    18.948500    29.789029
Na     5.003739     7.544524    18.798013
Si    14.760351    15.875647    36.128487
O      4.015050    13.565908    33.742753
Si    23.243391    35.328829    22.499936
O     20.295586     4.751310    27.112048
Si    27.011009    21.729654    23.634193
O     25.188858    31.071863     1.616483
O      1.775962     8.800025    20.240383
O     24.152139    22.022439     7.562894
O     18.858763    15.292976    23.821441
O     30.156835    20.519887    30.282712
O      5.487436     6.828590    17.092648
Na     8.874882    14.665874    10.393891
O     32.243097    29.473556    31.861416
O     34.933257    26.200287    31.113392
O     18.891124     0.211585    36.060521
O     33.605929     5.805542     5.511421
Ca    32.526873    26.298038    19.452303
Si     2.120791     6.242179     1.922639
Ca     0.515554    27.995685    16.014381
Si    23.867603    23.221466    24.288536
O      0.882772     0.830680    36.050917
O     34.435727    32.790170    29.067641
Na    29.945048    21.705442     1.022256
P     20.288811     4.860976    27.054905
O     16.529388    12.944387    14.494646
O     17.835413     9.223802    33.030274
Na     3.366803     6.380925    28.424330
O     20.253953     6.590050     5.842794
Si     5.405392    32.267308    17.073180
O     22.479726    34.873715     1.484174
Si    11.326172    34.436412    32.784625
Ca    14.250493    17.430624    17.595348
Si    29.209132    28.541127    23.297744
Na    13.368226    21.657620    32.325350
O     17.788575    33.419838     0.584819
Na    23.195514    23.122778     5.892228
P     18.722535    12.590168    15.261886
O     12.921426    32.270774     0.789430
O     19.477683    22.520328     8.754782
Si    17.170530     3.982387     4.995335
O     20.629086    17.408298    15.558042
O     32.746075    30.593598    35.973165
O     36.019139     9.652292     9.460036
O     20.599850     6.070966    27.459493
Na    34.977522    28.049474    35.903928
Si     7.443398    21.263294     7.011733
Si     7.106920    16.649365    10.281526
Si    16.142026     8.286740    22.616112
Na    34.872469    10.848561     4.742616
O     26.974322    32.030350    17.598000
O     29.541788    10.795796     4.946927
O      4.100345    10.078966    10.117052
O     29.503712    15.092763    10.064492
O     17.997159    32.161844    28.589218
Na    35.867628     2.726429    29.730246
Na    13.662528     0.917885     3.661967
Na     4.896802     1.974096    31.605520
O      8.851733    13.856106    16.708383
Si     4.670735    22.710539     8.544564
Si     5.310224    12.575202     2.359338
O     18.724716    15.699526    35.742464
O      2.728162     6.986041     0.241053
O      5.030444     2.851520    16.041352
O     14.069921    16.513866    11.088044
O     21.437187     5.117181     2.869217
Na    22.002505    11.383610    25.612034
Ca    16.100705    16.167199    20.587053
Si    27.299654    23.074619    31.250627
O     31.733900    25.148973     4.288198
O      1.715593     0.287830    10.693156
Si    35.318019    11.425957    17.289416
O     11.542148    18.433786    19.526721
O      8.288263    25.021236    23.062762
O     36.099584    16.992234    17.255363
Na     6.311729    29.568919    21.585031
O     32.469737     4.628999    32.846001
O     12.133537     3.818842     2.319799
Si    27.605419     0.817703    35.613272
O      3.317076    23.681092    15.134745
Ca    28.328143    16.522061    24.977887
O     20.354772    35.724065    12.928531
O     13.410511     9.594514    23.034493
Na    35.697579     1.137883    20.597973
O     20.385629    24.157364    23.677223
O     12.709356     8.454047     1.757765
Na    17.736251     1.608495    12.592351
O     25.479762     7.492248     2.323389
Si    15.560793    15.792537     8.073544
O     35.075414    20.423970     8.046204
O     21.550312     4.302272     4.971915
Ca    11.740936    28.767590    31.086034
O      0.120796    25.706069    16.258368
Na    22.708489    26.982672    16.365959
Si     5.312391     8.904954     6.301614
Si    19.893830    35.286320    34.983455
Si    14.167989    26.112259     8.508351
O     14.049767     3.061148    13.747485
O     19.886644    18.928998    18.709349
O     29.350333    19.184258    35.842666
Si    30.974626     7.728850     1.753759
O     17.508976    15.633558    27.850149
O     19.601479    11.967424    20.707175
O      5.842782    22.963026    12.697292
Ca    32.828686    19.916238    33.780116
O     25.491225     3.490947     0.713225
Ca     4.850243    35.609049    15.744644
O     14.536978     9.368111    18.616386
O     33.525994    25.934158    33.723238
Si    30.932623    32.100046    35.229425
O     25.595833    11.502552    31.841188
Ca    16.595939    13.192911    17.777079
O     19.356916    21.452889    11.340730
O     28.235789    35.261307     3.767883
Si     8.341476     1.199081    20.662539
O     35.368613    24.104623    18.041228
O     32.271000    18.516438    29.119174
Na     7.633119    33.548803    22.649896
Na    16.048330     1.800581    27.112017
Ca     4.729268    12.329227    21.105115
O     14.986577    20.883630     4.803024
Na    16.320247    22.920033    11.317915
O     35.020189    36.175963    33.008449
Na    11.655459    34.434159    25.333237
O     30.998346    28.984102     8.291781
O      4.540318    16.036051     7.415418
O     26.305935    20.227151    27.311654
Na    25.846886    11.914944     1.526388
Na     2.003008    21.795637    13.677253
Si    13.988735    23.263620     9.852480
O     23.673733     4.973513    32.334355
Ca    32.168245    18.556839    35.643993
O     30.434559    19.077543     4.725230
P      5.408558     3.570478    24.739421
O     35.608723    13.565620    31.046949
O     27.133275     4.691122     0.706337
O     14.497966    16.742783     6.568129
Na     2.469694    28.298455    17.852975
Si    29.126856    35.310742    10.402512
O      6.633365    29.725703     9.613315
Na    17.477091    22.909226    13.703145
O      6.087644    17.064742     0.522611
O     20.896781    16.809990    24.450527
O     11.019640    15.922171     9.385773
Na     5.659693     5.354476    21.644582
O     23.218169    23.079937    15.059726
O      1.066243    25.523224    30.959991
O     35.014546     3.261783     4.656086
O     27.609993    20.391460    24.824163
Na    12.263423    15.668348    29.865642
O     34.491678     0.892268    27.245651
O     29.327936    12.255146    24.847130
Ca    36.197179    27.289828     2.004106
O     12.474125    25.548599     2.107091
O      6.290807    34.424339     7.277899
Si    11.764302    22.387398    23.943128
O      4.330992    18.039228     7.347326
O      1.323284     6.036404    24.927770
O     16.360773     5.701210     5.077963
O      8.022855    34.813103     8.105084
Na    21.993374    13.127086     1.730977
O     34.665443    17.118220     6.681574
O     31.506150     7.502356    20.656564
O      1.657285    12.911611    27.144470
Na    33.586349    34.755331    29.696175
O     19.671979    29.421939     1.630545
O     32.059657    18.956057    26.610037
O     27.569386     2.323318    17.096604
Ca    17.722305    18.835269    33.284008
O      5.405977    11.497807    23.295518
O     20.981592    21.572209     3.317788
Na    15.764662     7.229531    35.142206
Si    15.856759    13.994373    13.138404
O     13.477868     9.110252    30.029850
Na    13.758254    32.772361    23.744757
O     16.018256     2.937346     4.712028
O     14.218394    27.886963    32.698701
O     32.452183     4.132031    24.935927
Na    16.965640    15.047084    24.153335
O     17.448555    12.985093    19.928819
O     19.601236     5.902376    11.499700
P      4.109536    16.753145    22.265081
Na     1.479636    25.374474    33.114176
Si    28.240720     8.910719    11.269716
O     19.479475    21.919249     0.439447
O      2.471247    15.705179    10.490499
Na    33.854326    21.653695     7.000664
O     23.674828    25.027496    23.724925
Ca    13.975129    29.780209     0.231758
O     14.521087    21.639559    24.108979
Na    25.905170    13.587366     9.217647
Na    29.491766    12.860316    19.898982
O     24.335652    15.274453    29.627228
O     18.899937     4.225793     5.858492
O      1.719713    12.672145    29.192646
Na    15.566330     8.283570    32.414992
O     22.005522    23.274713    15.207117
O     23.089896    16.762019    26.698031
O     26.863078     9.727294    15.962131
O     34.607332    13.994790    26.471521
Si    17.021235    23.600580    20.314248
O     23.931631    11.499519    28.999878
O     12.892468    17.070492    31.009553
O      0.009266    13.608969    26.143693
O      7.105589     0.067138    35.157455
O      5.548008     7.553297    13.513863
O      2.434169    33.014334    27.516113
Si    17.534312     4.384783     8.903833
Si    30.132168    14.434008     0.242129
O      8.720103    28.803036    21.370934
O     13.290723    28.952546     5.009059
O      9.675320     5.647781    19.021150
Na    24.445533    24.742208     2.667925
O     32.203017    33.323379    17.553950
O      6.194401    12.424893     3.315985
O      5.398683    32.292319    17.078247
O     33.199140    28.301899    34.914276
Na     2.433231    30.087022     4.003724
Na    33.620790    10.221388    25.286235
O     28.414770    30.962896    26.690078
Na    30.437574     4.343143     8.863120
Na     4.896646     9.440780    13.779661
Ca    14.703364     8.146884     3.313123
Na    22.976001    23.842803    32.786437
O      5.368856    23.491856     4.969236
O      8.180286    15.158231     8.057383
Na     8.616821     8.485610    25.774892
O      6.525168    31.247029     1.883049
Na    22.967149     5.880230    21.443929
O      2.597777    22.686423     1.290379
O     30.683293    27.728432    15.217591
Ca    25.083687    23.102799    28.410578
O     25.933392    34.491319    28.928327
O     23.260570    24.633380     0.495602
Si     1.932651    21.863375    28.906170
Si     4.982875    31.863016    30.468230
O     32.516807    22.624535    19.070545
Si    21.506537    23.355293     3.127994
O     20.128820    23.392977    17.625858
Na     5.992303     2.374177    17.734643
O      6.977905    26.584077    20.362773
Ca    29.972429     4.798669    31.619973
O     18.647197     6.788975     4.759624
O      1.672206    20.407975     4.404526
O     33.528616    26.019298     0.939752
O     34.025860    15.737854     7.925159
O      9.671343    12.512745     6.405560
Si    10.783890    24.294921    30.951637
Si    20.289948    20.253575    30.441265
Na    27.196123     6.221605     6.089190
Si     3.385506    16.649043    14.580019
Na    15.246815    34.861577    30.341964
O     28.620368    19.424680    21.922284
O      2.331070    20.883205     6.926840
O     17.550642    13.834584    33.659726
O      7.392094    31.629724    23.004899
Si    26.056751     1.427789    20.624625
O     11.643794    14.526860     9.477607
O     12.291860     7.349496     5.687669
O     23.754684    21.094511     5.395975
O     31.671784     8.940347     3.689684
Na     8.719452     5.992651    11.981369
Na    15.920328    17.921547    24.806951
Si    20.935527    14.702642    15.619774
Na    13.456024     3.272185     7.397034
O     31.667237    20.794471    24.758182
O     18.969033     8.576509     0.458623
O      0.364084     3.485607    27.472536
O      7.834560    19.510356     6.102915
O     26.596215     4.145704    17.728439
Na    22.969117    24.203257    30.776158
Si    20.626994    25.382376    24.252971
O     34.363761    30.106187     1.617691
Si    12.479708     6.447724    16.549242
O      2.830891    22.841473    28.069253
Na    17.262963    29.425341     6.440506
Na     3.662461    34.264135     1.538256
O     15.385016     1.446087    22.740099
Si    12.558760     3.841383     4.294743
Na    16.400839    35.999130    14.894421
Si    14.165968    34.312745    11.313470
Si    33.129048    21.238999     0.594174
Ca     3.998160     3.034385    18.357292
P     28.327073     3.498641    23.697221
O     19.968374    17.191585    33.984799
Ca    26.077124     1.991272    18.488153
O      5.131853    31.863336    10.472825
O     25.396673    21.217675    19.315884
Na    27.464505     4.349583    10.074370
O      5.745248    14.403938     2.521351
O     13.003253     5.952761     2.918312
O     14.629553     4.644197    20.801130
Na    34.809236    13.682424    34.651408
O     30.155560    32.917498    14.201654
Si    35.486384     7.079548     8.252903
O      2.318419    29.341144    34.596063
O     28.625783    30.324459    19.931752
Na    28.752032     4.785015    26.761714
O      8.901605    30.519386     0.370569
Na    31.709273    23.152577    25.523358
O     31.938023    32.250250    19.154038
O     32.928426    30.954500     2.347547
Ca    18.379527    20.714940    24.332382
O      2.118668    26.964155     2.174552
O     12.001147    26.985893    28.745674
O     30.051107    31.136465    13.483609
O     12.771019    25.262278     5.984588
Si    31.305739     4.174273    22.520365
O      7.044284    34.991892     5.141296
Ca    33.996715    23.739823     2.001617
O     18.012401     2.915439    26.918495
Ca     0.939343    17.678723    20.716881
Ca     5.735496    13.141032    26.683502
O     33.580322     2.073170    21.734594
Ca    14.225146     0.832879     0.576533
O     12.015332    25.222929    35.505626
O      9.781374     4.688387    10.236345
Si     4.702333    30.234520     5.854830
O     27.623734     0.810425    35.625941
O     29.434086    23.865111    27.417918
O     34.035242    27.448607    14.171571
O     14.612653    14.436772    24.229117
Na    21.255086    20.923540    35.390063
O     11.631364     5.970491     4.423157
O      7.148073    16.720400    10.213242
O     17.245096     7.995670     0.590264
O     28.359245    15.178906    11.297662
Ca    25.088854    24.283643    11.201922
Si    17.559919    14.153478     8.030961
Na    15.225634    32.670722    14.804844
O      4.869569     8.578634     8.098644
O     20.529732     8.840251    33.335352
O     14.191417     3.815334    32.315456
Si    34.071911     4.510017    31.451393
Si     2.859766     0.846757    17.507986
O     16.354286    32.663178    19.607063
Si     3.417152    32.976755    31.323325
O     13.961459     1.911196    32.632780
Ca     7.583457    22.287381    18.650770
Si     0.033402     8.239709     4.463562
O     17.384039     4.566180     8.749566
O     19.408221     6.527146    34.754323
O     30.038894     3.373341     0.428270
O     21.495714    11.143434    22.111804
O     21.700323    14.469915    27.421197
Si     3.419684     6.247733    18.879594
O     18.343203    25.616209     7.191336
O     14.134909     8.121187    28.429841
O     31.321627    10.903866     5.650320
O     29.633241    35.436291    25.769065
Ca     9.438861    32.087270    21.176665
O     28.758266     2.004880     8.622715
Na    30.354459    25.037455    13.289803
Si     4.242248    31.807779    35.953781
O      0.781134     9.629496     4.782075
O      4.521178     6.892009    29.510584
O      6.033936    15.281395    22.663500
O     11.311859    34.446814    32.791945
O     14.824630    30.678490    13.849988
O     24.750273    36.212789     9.910970
O     22.912948    23.691235    35.015450
Na     1.678725     9.623687    13.633080
O      3.194935    33.069879    31.075143
O     31.249327     6.131950     8.018513
O     18.189732    35.903003    23.936901
O     33.774150    23.718465     4.037950
Si    27.284115    18.682752    27.464269
Si    20.747197    35.736265     1.379473
O     28.966641     3.519868    23.395250
Si    26.132930    27.753822    12.922831
O      5.831879    31.340340    28.989357
Na    16.783481    30.438526     2.683343
Na    29.997988    24.805113    16.857775
Na     1.121513    31.369629    29.287707
O      0.361935    30.424591    23.977671
O      3.448594     6.278606    18.891247
Ca    30.274797    32.172749    21.166978
Si    12.331607    32.798433    19.194137
O     20.722600     3.669320    23.980664
Na     2.604696    34.780046    26.013504
Si    14.191853    19.661085    26.360107
Si    14.179944    14.836690     4.876777
O     13.222008    29.804015    29.958866
Ca    22.721201     5.212059    15.378570
O     27.069657     2.678653    35.371829
Si    27.917841    11.854676    25.467034
Na     1.980744     9.325091    18.315015
O     29.677457    20.806395    19.183559
O     34.885826     6.117258    11.192473
O     31.804246    26.828171    12.128385
Si    35.517702    20.750497    30.879823
O      1.527909    28.277255     7.943920
Si    34.478714    29.358685    17.328122
O     18.016731     6.675619    18.219560
Si    29.713649    35.653242    30.232316
Si    35.726614    15.419117    18.899042
Na    30.834882    29.664886     0.222415
O     28.313320     4.476857    18.378244
O      5.804991     7.162033    20.820971
O      0.231050    33.419528    17.931744
Ca     4.983340    25.320445     4.307640
O      0.402796     2.594567    19.671376
O     21.993171    27.666310     3.384731
O     20.065717    35.254618    30.370993
O     22.459895    13.384837    25.290009
O     33.551308    16.913149    19.379029
O     14.247910    35.725416    26.304669
Si    11.886176    32.871296    21.085475
O      3.482552    31.887312    11.208606
O     31.528393    11.145604    30.513994
O     13.854865    31.573327    29.384106
Ca    20.258865    32.158661    36.222423
Si    17.861472    27.016584    33.126906
O     31.931147    25.969861    34.626732
Na    17.356085    21.456197     9.391378
O     35.718509    21.041234    24.095412
O     28.376498     9.765077    30.261798
Na    13.530396     6.562402    32.066172
O     18.609970    17.707242    12.454717
O     20.009561    27.080906    20.812641
O      2.373556    16.635539    22.045312
O     10.495828     3.173349    33.541897
O     31.453685    12.870021     0.328178
Na    15.454326     5.737224    27.191224
Na    28.340697    29.668045    15.693099
O     32.408915     3.612016    27.971847
O      7.059887     3.942397     0.131059
O     26.490449    26.276408    25.649521
O     10.955140    14.709118    25.736769
O      0.174289    22.191894    28.212777
Na    24.407994    35.521631    18.779340
O     29.569930    27.433872    30.979861
O     35.779963    17.327130    30.066756
Ca    35.756547    32.046733     3.816502
Si     7.802831     9.029196    20.057320
Ca     4.993205    17.088124    30.555379
O     11.051142     3.762455    20.349481
O     28.440586    25.902537    17.470693
Si     0.908167     0.821418    36.088347
Si     1.180980    14.609089    11.320964
O     33.523514    31.631841    28.510886
O     30.740607    11.700609    24.871460
O     34.052184     9.319842     1.652222
Na    25.245643     4.149895    16.049713
Na     4.489639     0.095344     7.561137
O     15.469363    13.023336    27.267705
O     17.362899    10.681970    10.536616
Si    21.959475    15.035925    14.006356
O     22.266285    27.079559     5.968635
O     12.081865    14.108341    24.798909
O     13.296909     2.472221     5.409001
O     13.320063    22.455425     7.951215
O     26.241158     6.677471    10.954937
O     27.422444     6.152103    30.117722
Ca    32.356763    30.317359     6.942972
Ca     9.406455     6.221526    20.966787
O     34.940986     1.442713    28.398530
Si    31.644270    33.251125     7.473405
O     28.259251     0.819043     5.755668
O     18.683704     6.197263    30.534222
Si    26.306708    20.198157    27.304451
Na    11.712613     4.206820    31.221322
Si     6.475581     3.248963     6.890047
Ca     2.772735    24.350820     9.864917
O     20.767260    24.291943     1.681418
Ca     2.677102    19.971205    21.873678
O     16.661675    28.398745     2.513095
O     17.766681     4.593960     3.211421
Ca     4.762002     9.365655     0.503370
Si     3.630344    26.689072     3.384751
Ca    20.535469    11.425429    18.929424
O     33.679129    11.040080    19.308282
Na     3.860453    19.727510     6.448668
O     34.946123    28.216052    33.887623
Na     2.405842     7.109884     8.948094
Na    27.624117    34.958860    20.655427
Ca    13.677820    23.173169    25.184480
O     15.872631    29.885699    24.958851
Na    24.572240    26.485126    29.573135
Na    22.299821    24.693479    25.153523
Si    12.970665    18.305305    19.564164
Na    11.187300    20.195214    10.828222
O     21.780719    12.194542    23.488366
O     26.141244    33.731311     9.402298
Na    26.278377    31.379489    19.666539
O     23.211263    23.273902    23.071651
O     22.291959    11.160723    27.914181
O     27.334970    33.420857    12.036947
Si    12.026247    30.910209    18.278271
Si    32.827029    34.420929    14.026978
O     14.145727    26.159369     8.571774
Na    13.593887    17.729296     0.896251
Ca     9.228733    31.091589    26.366506
O     27.036752    28.371152    16.377588
O     25.290355     6.332916    25.517764
O     14.147026     0.783094    25.873569
O     19.983696    18.646994     4.396888
O     24.717843    12.640376     7.486808
O     26.323579     0.007688    21.850461
Si    14.811704    15.933471    23.120495
Na     5.912021    10.949657    17.111541
Si     9.549838    34.917543    28.217428
O      8.962806     9.785030     9.655698
Si    24.520194    34.385123    10.347699
O     12.741520     8.587205     3.009154
O      5.515721    34.364646    12.973777
O     12.371833     4.035825     4.142103
O     15.163728    26.305799    21.679536
Na    17.747978    22.953411    30.770245
Ca    24.408172    34.580362    25.047208
O     10.691010    22.991897    14.285086
O      7.970775    10.421946    18.808412
O     11.262272    11.530360    16.809035
Si    32.444097    27.963446    12.724327
Si    21.371170    12.743529    21.083054
O     15.580919     3.941857    33.649938
O     21.692953    27.134889    28.701507
O     12.808237    26.823328    31.408027
Si    25.920368    34.481324    28.942531
Na    32.846130    12.729158     6.610966
O     16.704701    18.286003    26.988038
O      1.966547     5.554335    33.266313
O      5.296187    22.212386     8.531208
O     26.045302    30.720835    36.226547
O     30.577911    34.258459    12.700078
Ca    28.691841    18.461390     5.986105
Na    26.614488     2.340256     8.361331
Na    18.775500    32.227389    11.538354
O      0.104043    26.740466     9.432138
Na    25.746367    17.509110     1.007853
O     21.862998    36.261234    13.885834
O     15.826176     5.830809    11.282498
Na     0.466014    34.355309    10.688707
Na    33.012886     1.515809     8.690710
Si    17.563669    11.288417    18.774583
Si    21.727637    17.033466    34.542161
Si     1.404267    33.803198    30.143325
O      2.805023    13.035878    20.747823
Na    11.418416     3.397580    18.064837
Na    34.775517     7.210996    36.195225
O     30.940714    14.324836    19.576158
O      3.451538    23.311441    35.871059
O     12.391622    22.686410    19.289000
Na    29.610503    32.630264    30.323020
O     12.152714    17.695811    27.603891
Ca     7.108488    13.764430     0.886903
O     29.211469    28.814032    23.554516
Na    21.744194    29.069482     4.885778
Si     4.543719    28.676609     4.594417
O     13.667350    33.016787    11.414987
Si    26.889073    25.651162    26.838167
Ca    34.287986    25.684277     4.657601
Na     3.720392    17.587813    11.103692
O      0.976544    20.097147    30.604697
O      1.149412     3.916070    30.229657
P      3.448787    28.044700    34.125724
O     21.381999     9.632669    18.831266
Ca    17.454794     6.873607     2.803308
Na     9.550451     9.722735     0.215085
O     30.516496     1.546781     0.382719
Si     2.406370     5.239844    29.819089
Na    23.986351    15.366147    11.994025
O     10.813999     5.058878    34.123675
O     17.143226    13.486682    12.255003
Na    26.033706     2.979143     2.665083
O     27.582331     1.596507     2.975649
O     15.440472    16.618087    22.599582
Si    17.400600     9.576202     1.646208
O     36.190054     9.153156    16.668307
O     24.348062     0.656602     1.225560
Ca    24.275758    22.973956    36.216117
Na    14.761819    31.997530     1.736930
Na    15.373948    32.646763     7.487379
Si    19.505737    29.087748    23.757686
O      6.269173    33.146971    19.277579
Ca    10.683357    14.036832     3.754905
O      4.842346     9.251019     2.574274
Si    30.913364    22.107675    19.898318
O      7.702271    29.898626    27.654965
Si    14.862405    17.258516    30.942544
O     34.226666    11.887624    22.818684
O     33.697717    18.537970    27.274748
Si     0.974706    11.787248     7.011312
Na     2.517661    30.806718     8.549901
O     35.353732    11.442317    17.341368
Si    19.854287    30.279836     3.226084
O     25.999937     3.836044    29.407100
Si    19.948768    19.791666    32.068985
O     31.610887     5.778558    32.071023
O     20.384491     0.138183    26.657126
O     29.978212    20.009780     8.624242
O     24.179336    34.549723    14.155794
O     13.388186    11.523038    22.354051
Ca    25.968381     7.977354    15.778062
P     12.687466     8.438323     1.748828
O     25.736181    14.556265    12.229909
Si    28.834509    22.867316    20.412669
O      8.182861    10.209374    27.569323
O     12.825226     7.051612    18.329200
O     16.402422    11.894220    30.668613
Na    17.931966    26.459404    24.417384
O     10.509838     1.723736    15.377073
O     15.935141    19.060749    27.680173
O     15.941228    25.241324     8.167518
Si    34.504479     4.087519     1.960330
O     18.395245    11.272670    17.516269
O     17.680726    24.356845     8.655719
O      0.390469     3.692396    17.031342
Ca    13.530353    35.872598    14.065575
O     12.272924    20.827785     4.664363
O      9.629865    11.494477     9.311318
O     16.916806    14.893954     6.927632
Na    27.445682    28.497716    24.745157
O     15.621564    31.831649    18.335711
Na    22.710168    15.714176     9.886193
Na    33.877364    35.630899    24.833195
P     36.175644     9.164483    16.684666
Ca    16.900459    16.863289    13.984193
Si    30.727974    11.680711    24.886411
P      9.778611     1.025782    22.242677
Si     9.129216    22.774935    12.051303
O     35.617116    14.126861    17.548545
Na     8.282349    35.314205    16.495202
O      3.432034    28.057558    34.101975
Na     1.972573    24.411884     0.567248
Si    18.971971     7.192956    28.980434
Ca    18.968484    18.588315    27.246725
O     12.421866    26.619286    20.739295
Si    21.117750    17.769524     3.118668
O     15.496795    17.196826    32.318445
Si    31.007416     0.305014    18.193277
O     17.525671     8.353438    34.860101
O     31.550678    22.904427    28.725906
O     30.692125     7.248289     2.178413
Na    13.553146    30.675337    20.398483
O     13.374664    35.335011    22.126845
O      6.865388    33.044513     2.027881
O     25.824709    10.901790    10.651911
O     35.100382    26.056462    20.628929
O     16.872427    29.763185     8.898366
O     32.178482     6.836337    11.396204
Na    33.536221    32.584399    31.940025
O     27.373766    29.468891     4.322636
Na    21.175961    34.392519    15.052994
Na    30.521637    29.211673    26.132002
O     33.481501    21.320705    20.945661
O     26.425252    25.981038    12.502809
O     10.038813    21.024955    12.281823
O      5.922974    15.011618    17.642454
Na     7.729218    17.668895    13.679618
Ca    23.539217     2.425799     7.416027
O     28.476214    23.226326     5.013695
Si    36.115755    31.920375    32.174939
O     14.132306     5.387014    16.470793
Ca     4.369049     3.762776     2.875549
O     27.494764    29.837799    11.055086
Si    15.068338     1.655951    17.663753
O     21.419658    32.476964    22.678750
O      5.567515    21.959919    35.415581
O     32.072529    16.111456    10.085207
O     24.856712     4.649163    18.883494
Si    24.064274    25.186155    35.152678
O     35.591862     7.231677    19.019946
O      8.995408    27.301405    34.550154
Ca     7.331130     3.341579    34.275480
O     10.301251     5.931779    29.477846
O      0.452126     9.269847    26.426451
Na     6.438967    24.323152     3.327864
Ca    14.752098     4.248323    11.962757
O     31.489518    33.659772     3.671090
O     18.327313    13.338759    13.707179
Ca     1.277960    16.825939    33.444524
O      4.450889     0.259323    29.487346
Na    30.515244     6.937516    33.759385
Si     9.632183     3.928060    35.037530
O     29.355072    26.023276    25.857377
Ca    18.806322     3.105123     2.269669
Ca    32.391034    25.797285    14.415492
Si     0.584797    31.007310    22.636240
O      0.768010    22.426421     9.899736
O      6.409078    17.575281    11.701635
O     35.948662    22.606213    34.086717
O      2.521756     5.433393    24.755184
Ca    16.776916    20.332521     0.315523
Na    26.594187    28.536279    34.711414
Si    10.495466     1.785056    15.379408
O     19.073318     3.805564    25.639750
O     30.822484    21.708098    11.968789
O     16.674531    35.775342     2.430827
O     34.350949    22.204362    31.703967
O     19.163199    18.765870    23.742201
Ca    14.758259     1.859976    20.737059
O      6.679082    11.947541    29.186240
O      7.365570     2.699691     5.888075
Na    11.084166    17.969203    17.393714
Ca    15.148433    25.621511    10.864240
O     21.345126    18.007914     8.955240
Na     7.580340    26.618364    31.619262
O     18.706044    14.823028     9.427615
O     29.732560     9.418794     1.394544
O     29.369876    27.765723    24.993004
Ca    23.738202    17.021312    11.282729
O      0.922722     4.459844    34.618777
Si     6.877600     5.175188    18.436881
O      4.362201     3.329451     0.344661
Si     8.866291    26.339437    25.641868
O     16.704341    18.446043    12.826883
O     12.121933    20.821106    15.571421
O      0.613929    29.082486    19.446145
O      3.714474    10.382983    30.558003
Si    28.621142    24.858353    11.798326
O     29.969142     9.132089    22.469625
Ca     2.530767    19.458139     2.951826
Si    21.746394     5.887406    33.994931
Na    14.560074    14.002013     6.923375
O     27.911795    11.857615    25.476274
Ca    20.566218    15.717199    35.985153
O     24.488030    29.983450     7.469100
O     18.522516    23.783086    20.043837
O     32.415341    12.483521     2.033075
O     30.040181     4.579688    14.704426
O      0.173705    27.216170    30.251406
P     10.592578    15.257256     1.280349
Si     7.615095    11.940505    28.157398
Ca    11.831694    33.821061    15.809210
O      6.839549    15.402239    20.845196
O     22.324825    34.612175    23.939023
Si    20.665003     9.959569     6.158173
O     30.661408    34.280509    30.006893
Na    33.141363    24.098827    11.765753
Ca    26.217619    34.165098    15.023381
O     19.254569     9.483246    28.559919
O      7.343229    17.781346    24.358874
O     28.782506    10.665843    12.782791
Si    33.366463     4.163581     4.638498
O     13.673571    17.830042     6.669045
O     22.262892    26.852381    29.672905
O     11.874875    32.849713    21.082239
Na    19.711189    14.662838    33.821502
O      0.840188    20.578192     1.937697
O     13.694466    19.844049     9.154063
Si    18.185753     7.525509     5.383381
Si     2.637572     6.445352     6.487143
Si    25.657538    16.206859    11.246211
O     12.946398     3.891670    26.082624
Na     1.981503    15.874275     8.558499
Si     6.144323    34.005056     6.467638
Na    22.883178    19.011292    18.460304
Si    20.125185    15.254016    22.310806
Na    13.248703    10.123366     8.119958
O     18.175049     9.813355    17.759471
O     15.138855    11.280475    21.960256
O     28.831711     3.603858    17.512036
Na    10.208064    12.738224    26.678226
Si     2.664471    35.041765    11.182272
O     26.029038     9.794436    33.877738
O     10.138894    25.164243    26.323092
Si    19.661416    21.262921    31.996973
Si    15.937639    18.979945    27.648167
O     29.964507    26.624879    28.043211
Ca     6.795178    17.610487    18.965080
O     35.460520     7.073741     8.219506
O      3.792914    26.285292     8.226334
Ca    10.091268    22.228788    28.304419
O     26.212019    34.873350    12.878817
Na     3.725926    26.096816    10.334813
O     33.031382    24.230820     9.062869
Na     5.086491     0.056953    36.043876
P      6.282179    33.177769    19.253359
Na    22.258329     4.138183    29.942705
O      9.484630    32.452120     7.432650
Ca     4.107724    22.295218    20.223933
Si     6.648023     9.820689    35.226323
Si    16.025382    25.615519     5.523538
O     24.340340     8.074015     3.058143
Na     2.383180     0.566238     1.627213
O      9.983808    33.825862     6.271474
Ca     6.642516    22.363210    26.247974
O     19.151978    30.608479    28.178681
O     24.912465     0.253286    15.926853
O      0.456900     2.994372    24.076995
Si    10.684541    11.349867    14.913069
Na    23.198871    33.666239    20.396141
Si    35.745912     9.859275    24.956181
Si    25.077348     0.949048     1.969373
Si    34.178096    35.649812     3.173755
Ca    19.775697     1.021891    18.404152
Si    22.606880    24.520570    27.568777
O     31.349511     0.210024    15.575510
O      6.316529    32.624732    28.002510
Si    21.524609     3.797046    22.121481
O     12.407563     2.512232    10.231586
O     14.169174    34.273300    11.323337
O     20.298405    33.083411    28.222225
O     14.881340    15.920889    36.143517
O     12.060374    31.846513    22.265437
Si    10.558799    24.153541    26.827858
Ca     6.564924    30.172006     3.660749
Si    13.367747    11.336089    22.428030
O     28.000159    23.491032    29.265187
O     32.714225    21.668164    30.625752
Si    21.875549     8.415169    15.119048
Ca    27.009041    29.073209     8.511157
O     10.404012    20.261994    22.237382
Si    34.121852    29.763997     1.419707
O      4.948765     3.280183    23.618140
Ca     8.500664    12.140380    15.659335
Si    30.069207    31.125165    13.494131
O      1.766858     3.916114    32.208724
O     13.785779    35.624419    32.347338
Si    29.422028    27.489547    17.553782
Na    33.035067    14.196535    36.105430
Na    17.341429    33.434643    34.853045
Ca    19.883578    33.353165    13.775894
O     10.075709    30.214441    21.595486
O      4.419515    14.796146    33.179797
O     17.952122     4.683636    17.969177
Na     8.976475     9.455195    22.429175
O     12.366075    32.787065    19.162482
Ca     8.907122    33.973054     1.763811
O     35.157879    27.365170    12.137993
Si     6.114515    24.885771    12.594355
O      5.407920     3.577831    24.729823
Na    26.808549     7.659215    21.898040
Na     3.440142    17.309960    35.430587
O      7.196125    27.350844     7.678217
O     34.261175    26.729278     2.685302
Ca    22.086701    17.534192    22.980667
O      5.804046     6.405705     4.367518
Ca    30.301399     3.117182    28.917658
O     29.460646    33.663368    27.779381
O      4.124791    28.508318    32.502085
Si    15.811676    29.121156    18.171501
Si    19.088962     3.778293    25.641301
O      1.512233    30.154276    10.403856
O     14.689175    18.098447    26.516038
O      3.209096    35.140365    14.252921
Na    15.800075    19.969951    10.423968
O      6.801050    10.955462    22.020243
O     24.334492    15.949369    20.466476
O     33.138146    32.655559    14.597813
Na     9.175242    33.839751    18.595092
O      6.428764    14.731426    25.589788
Na    13.024934    31.081557    14.828480
Si    23.139640    30.140070    15.562964
O      8.870778    14.925041     2.356079
O      0.777781     9.446687    23.449401
O      7.474970    20.179323    19.263437
Na    33.552807    26.137209    12.255016
Ca    29.710995     0.116350     8.300144
O     11.000003    12.727657    23.899956
Si    29.346824    19.181621    35.822712
O     21.681147     7.518416    13.444443
O     29.963180    15.781138     4.511431
O      9.376978    24.197660    29.704698
O     23.766679    35.079730    12.293358
O     23.443830    22.049774    27.955708
O     35.096575    10.390097    20.535111
Ca    25.301171    23.454696     6.012276
Si    14.987600    28.653665     1.687053
Ca    29.474744     9.508437    14.343937
O     28.972957    23.500648    12.802737
Si    30.947723    17.407590     3.820242
O      3.945092    16.240020    20.971559
Si     4.087007     1.751708    28.223163
O     21.883202    17.861211    10.807300
Na    29.312987     7.772210    26.117525
O     27.332810     3.331980    22.223468
Si    12.927229     0.129822     6.004547
Si     8.685752    27.211595    20.229179
O     13.243064    16.483681     8.005474
P     16.867669    15.602636     2.303389
Ca    12.917501    12.513991    16.229090
Na    15.054578    27.624952    11.178135
Na    34.145451     1.655986     0.242843
Ca    19.830027    13.217769     6.836620
Si     8.973514    30.384834     2.225589
Si    25.837182    11.090627    32.530543
O     17.755058     6.727937    27.573951
Na    29.894165     0.040031    12.198127
Na    14.764554    24.685907    22.885783
Na    31.622493    15.164981    28.162191
Si    18.616762    32.477188    15.881309
Na    28.641647    18.911477    23.822103
Na    24.571062     1.995010    10.613082
Si    13.354306    21.306781     9.417040
Si     3.144077     9.335691    30.736353
O      1.418630    34.318941    12.329798
Na    15.682636    33.977287    32.574254
Na    34.035789    14.873297     9.847471
Si    33.118139    35.762088    35.343468
O      9.296221     2.792483    16.365319
O     31.089857    34.180603     0.229056
O     15.197374    26.853219     9.113082
O     14.272587    25.456535    18.635284
Ca    21.996577    34.243635    27.582883
Si    14.985207    20.877856     4.814239
O      7.747171    31.879021    13.944230
O      5.384754    20.343598    12.141624
O     26.630698    21.402050     7.788231
O     31.449737    25.677188    28.159455
Na    26.138723    18.909505    21.787767
Na    34.851585    32.193441    16.121013
Na    18.154264    11.405345    31.746563
O      9.033608    34.816869    13.001456
O     23.528050    28.418355     5.645313
O      8.849488    33.348762    15.845369
Na     2.281767     2.845848     5.682882
O     34.894124    25.759877    17.279237
O     21.091110    29.659799    28.961291
Si    35.727336    14.014293    24.215802
O     15.816741    18.926029    31.349740
Si    10.249697    27.902568    32.320210
Na    30.557163    13.822613    16.547406
O     30.980612    24.811241    15.212162
O      1.684019    20.631204    15.558118
Si    28.893336    14.096645    10.542640
O     27.771314    17.392018    21.020355
O     33.583746    22.606908    25.370461
O      6.218334    16.447620    16.283972
Si    21.326798    18.016197     8.915198
O     15.480626     7.734298    27.288132
Na     3.532495    32.759597     6.360500
O     19.289242    14.862992     1.004508
O      5.383369    27.398798     5.359131
Na    14.347532    25.181610     2.391656
O     30.891369    23.405610    18.521405
O     19.559051    11.428343     2.513175
O     28.887886    13.189113    10.526915
Ca    11.902347    21.639618     6.519260
Ca    16.612759    18.076996    20.894699
Na    10.842986     2.665578     4.620253
O     20.398034     4.065169    30.857561
Ca    29.613292     7.576826    19.217733
O      4.839147    35.248678    24.164499
O     31.654229    25.874782    30.619594
Ca    15.203826    18.451532     8.624028
O     25.157212    17.223764     2.871290
O     27.197034     1.913494    12.025757
O      6.124118     4.251840    29.869855
O     10.125469     4.950116    24.898587
O     14.222956    29.004482    14.170122
O     31.937011     2.040234    17.544999
O     21.221835    19.596765    25.720644
O     18.627275     4.400953    10.921329
O     29.089044    32.163667    34.932298
Si    13.605969    29.722435    29.556909
O     18.619175    33.769463     3.589559
O     17.469480     7.866149     8.294108
O      2.489770    13.297851    12.041566
Ca     7.468738    35.673848    13.882294
Si    18.508964    17.879276    12.468959
O      3.829822    22.779898    10.449169
Si     6.342088     8.119893     3.738962
Si    18.691453     6.421195    36.029043
O     19.939416    19.782802    32.075491
O     26.872452     1.056861    26.851463
Na     9.429382     7.867169     9.060992
O     21.277976    15.661738    22.857318
O      1.723692    35.849606    18.686014
Si     4.844855    21.680954     4.530286
Si     6.371982    12.411564     3.398502
O     13.461379    35.363806    25.054431
O     32.238879    31.838525    22.026079
O     32.196587    33.523505    20.027013
Si    11.700784    35.329953    11.090644
O      0.690991    22.164670     8.044613
O     12.250759     6.227759    16.650668
Ca    25.046843     1.020721    27.687885
O     17.492663    25.625557    10.195005
O      3.941847     3.844571    31.502203
O     30.794005    27.734828    21.912748
Na     3.531424    35.448988    19.488024
O      0.528116    27.506930    22.487582
Ca    34.692559    12.696258     7.642606
O      4.965780     5.971160     1.028575
O      5.925165     1.289453    15.627267
Ca     3.720556    34.823597    28.828473
Ca    30.310093    29.517833     5.226121
Ca    11.879906    12.124240    11.055804
Si    35.703529    27.516442    19.462296
Si    27.585113     6.709959    33.533896
O     24.966010    16.275071    31.023663
O     16.619332    22.618328    34.107348
Ca    11.519719    20.718029    19.370010
Si    17.987432    34.928247    14.028619
O     28.257594     8.926016    11.237180
P     34.064893     9.264412     1.678190
P     16.455004    15.582130     6.207216
Ca     6.514174    14.540953    12.754103
O     10.133983    31.590313     1.369436
O      1.979566    35.544608    29.907133
O     26.304745     2.552305    21.184600
O     33.426040    12.736139    18.528265
O     23.131434    30.163125    15.598567
Na    31.309556    29.537232    33.676855
O     15.678500     8.358071    28.757942
Na    15.679559    15.566679    33.913367
O     23.876137    23.283920    24.279191
O      2.299007    14.141736    34.034729
Si    35.497119    22.338856    15.812185
O     11.734873     3.659865     8.721436
O      4.384617     3.724353    34.249443
O     25.083074     2.134297    16.484704
O      5.846714    15.259066     6.080448
Si     6.878497    33.050798     1.996155
O     30.404389    17.084224     6.020849
O     13.024304    17.290421    32.910243
O     23.537610    30.660363     6.379583
Na    13.570253    12.993233    20.377429
Si    29.357779    17.684166    21.970543
O     31.292040    24.569038     9.883194
O      6.282644    20.171681    35.866702
Si    17.607656    34.721426    16.914330
O      7.005439    10.779406     0.545721
O     25.835543    30.685534     8.449116
Si    22.302716     8.545708    23.317411
O     14.853795    17.289883    30.946946
O     17.020813     8.775117    10.165239
O     31.346032     4.152518    22.500114
O     31.281215    36.247085    31.334473
Na     5.580327    16.134078     4.263373
O      4.869475    28.207224    35.167635
Ca     8.852390    29.585874    17.396917
Na    19.332531    12.131858    12.348596
O     19.846410    30.220984     3.160715
O     16.850055    24.727991    31.820975
O      2.012782    21.848023     5.500907
O     35.704238    14.013870    24.213036
Si    25.255557    24.023792    34.145802
O      4.714629    29.049698     9.494652
Si    18.240181    22.771600    33.152787
Na    23.637468    33.081717    32.157503
Si    15.713713     7.987206    21.156530
Si     4.494253    33.628546    14.598104
Na    13.061895     0.638078    11.561555
O      3.512537     8.989171    15.334731
Na    32.798892     5.466108    29.005710
P      5.517934     7.345539    17.075331
O      2.893083    30.683452     6.081914
O     28.311067    15.548849    32.025251
Na    15.941215     3.326050     2.552484
Si    18.327017    15.969219     1.193270
O     23.004935    14.238987    28.676300
Ca     0.912989    35.986790    25.735009
O      7.673003    12.679135     2.547259
Si    34.706743    15.765179    29.751444
O      4.056965    12.272543    27.264583
Na     4.224885     5.717832    35.494136
Si    14.018446    35.865272    26.279943
O     23.708268    29.019173     8.902901
O     22.317941    15.417849    35.161042
Na    25.392235     7.306406     8.932886
Na    25.762718     2.271576     5.348658
Na    23.588152    17.429518     4.244190
P      5.095071     8.046235    24.099273
Ca    16.147472    32.097675    21.566379
Si    28.966659    25.656831    26.562959
O      6.217202    28.315414    20.055198
O     23.334857    27.336390    32.887842
Si    14.341689     3.709026    32.222073
O     25.064361    26.038085     4.235398
O     35.476103    26.507726    13.851135
Si    32.004220    19.245273    22.296049
Na    19.962378    15.492412    26.249864
O     14.101075     6.205905    34.211531
Na    19.925789    34.359957    11.357169
O     35.504074    22.341691    15.780017
Si    32.062736    13.429701     3.697152
Ca     7.373495     0.483857    28.263101
Si    31.960712    12.736876    19.737014
O     13.211892    12.287620    35.156670
O      5.307495     1.615032    34.195899
O      1.652016     5.457160     5.926785
O     22.819492     7.243991    11.067132
O     26.202178    29.151810    26.145680
O      4.378622     5.003814    24.334768
Si    27.400991    29.443520     4.315106
Si    20.588536     5.261534     4.554788
P     14.201295    29.011655    14.170375
Si    28.318757     3.989668    36.210260
Na    29.168566    20.725451    15.369595
O      9.904300    22.881438    10.337097
O     27.488290    28.364204     6.717054
O     24.239003    10.812858    24.489844
O     17.286365     8.884916     3.528299
O     30.573911    11.980450     3.485763
O     36.064138     4.178818    22.592975
Si    24.205983    34.563547    14.156617
Na     7.579661    14.369565     3.841346
P     11.925499     2.182619    16.988314
O     13.213711    12.525399    25.263230
O     22.594670    24.530214    27.601475
Na    19.542979     7.951226    26.661560
O     22.386419     1.028879    17.463708
O     27.511503     1.888194    24.370575
Ca     7.527151     5.982155    15.499390
O      2.583328     2.011106    16.971088
O      3.621702    33.306815    15.831394
O     29.219745    11.926716    31.574993
O      5.492161    26.987464    16.739527
Na    31.965295     9.471877    19.504995
O     19.391821    11.020251    15.639672
O     25.795331    29.065759    21.368631
Ca     3.784967    33.142942    18.597900
O     11.725429    22.402580    23.940949
O      6.518241    11.071471    27.362545
Si    25.200225    29.047177    16.108621
Ca     4.964256    19.848314     8.210231
O     29.204949    12.340968     6.206458
Na    34.415405    21.908251    12.083073
O     18.992739    20.575878     0.170799
Si    10.175329    13.158373    14.273650
O     26.825807    27.509200    29.568437
O     15.082264    13.177452     4.986198
Na    12.074453     7.788898    29.125402
O      5.196252    30.833515    35.628961
O     25.719827    17.740887    10.446026
P     30.806651    16.231604    10.478925
O      8.510714    21.330434     8.532124
Ca    19.111699     6.036394     7.772075
O     13.185441     7.522656     7.339429
Na     7.086837    30.656283    13.095173
O     14.842519    26.822891     1.629311
O      2.786924    10.831792    25.308045
Si    33.493613    31.675907    28.551498
O     19.414518    18.002681    10.823752
Na    10.399639    16.066425     5.268990
O      4.086777     1.720527    28.135892
Na    24.434231    18.889702    25.517684
O     21.672832     1.083415     1.122884
Ca     6.260428    30.611317    11.530625
O      4.220288     6.803697     5.280064
O     12.136465    18.830634    25.388528
O     35.368177    34.693757    17.826882
Na    20.486143     4.423909    10.232303
O      5.335879     7.025045    24.836537
O     35.748185     9.835326    24.959254
O     34.927880    19.040252    18.055525
Na    23.203844    28.467766    36.237958
O     12.385751     8.076063    20.032711
Na    27.007192    19.520142     0.044469
Si    29.442590    28.806945     8.145402
O      2.465105     8.522646    22.839542
P     11.249485    27.809966    27.720072
O     27.820424     7.125521    15.669958
Si    29.184544    11.931762    31.567861
O     20.051130     9.980573    36.266393
O     10.732550    11.263372     5.476714
Na    21.215000    10.647439    16.253599
Si    21.665471    27.182121    28.697418
Si    25.583308    11.003709    30.636691
O      1.298710    21.036945     8.591519
O      8.235751    21.874734    32.770530
O      5.967715    22.518750     2.237484
Na    29.468630    13.998151    31.440680
Na     7.683510     3.983040    21.328147
O      5.298458    12.597870    15.749540
O     21.213871    13.865246    12.595708
O      7.841676    12.821474    11.788206
O     15.365340     9.195781     1.637384
O     12.604227    34.947825    10.061175
Na    28.420819     6.446770    13.151657
O      1.128252     3.182898    25.795837
O     27.324689    29.907366    20.838621
O     16.256076    25.057226    21.347821
Ca    16.815588    26.588755    14.482859
Si     8.917549     2.682341    16.097022
O     30.580249    26.045189    31.887118
Si    25.148200    20.516663     6.990503
O     15.656778     7.111160    19.523592
P     34.493087     0.882781    27.225060
O     12.480170    35.646075     0.160638
O     24.689441    27.471536    17.064892
O     26.960543    18.218432    25.631085
Si     2.033960    26.791419     9.056302
O     34.976000    21.430966    14.937097
Na    29.554892    28.619973    20.578054
O     24.044301     3.750113    25.178679
O      7.977219    12.879098    31.496433
Ca     6.555354     1.506787    23.896057
O     17.482975    22.357370    23.579918
Si    22.762080    12.732467    15.093746
Ca    12.008864    28.492331    17.231130
O      5.771766     0.887463    17.697728
Ca    22.606591    14.397346    23.443042
Ca    33.079089    16.036914     6.254881
Ca     7.428708    16.657768     2.344362
O     18.996859    15.400235     2.817371
O     35.625725    32.000820    30.418219
Ca    33.368430    30.249041     9.969961
Na    14.722219    35.696216    23.635549
O     16.913645    26.244423     4.760136
O     33.713763    31.447765    18.886115
O     22.101348     5.730856    32.120117
Ca    29.729039    22.864010    14.501612
O     25.034799     0.473168    17.361694
Ca    29.401098    20.490612    21.089139
O     20.568920    28.527755    23.269620
O      2.575083    27.809645    10.595551
O     20.426256    27.913581    15.520449
O     32.040894    13.467673     3.625025
O     12.677712    19.288726    18.016855
O      6.434445    11.457804     3.504275
O     18.840500    33.435920    21.865727
O     35.783474    33.014105    33.509557
O      8.022317    35.547945    18.818895
Ca    13.681643     4.765962     1.462098
O      7.497913    25.031185    11.201994
Si     7.882607    10.309554    20.819372
Si    11.961670    35.427516    32.825943
Na    33.365756    10.295644    32.071181
Na    27.880963    23.932140     9.382793
Na    18.576448    28.858931    15.625454
O     13.509903     7.054825     2.219551
O     16.010312    29.985062     5.054565
Si    15.072594    35.194142    21.402430
O     22.673162    13.299830    14.746159
Na     8.469401    11.111747    11.057951
Si    17.647146    24.355924     8.692585
O     16.404547     1.557777    14.204196
O     15.229580     3.777949    27.006198
Si    21.034204    10.656016     1.620741
Na    13.637303     3.904540    17.870057
Na    10.314831    26.168210    21.234096
O     36.011159     7.637011     6.943889
Ca    31.501776    15.379667     3.052448
O     24.856950    19.370490    17.258102
Si    20.054156    27.563042    17.600114
O     16.226095    30.618041    10.228378
Na    34.929764    18.921995    28.645860
O     11.693760    35.339985    11.049180
Si    28.291180     4.467209    18.411742
O     27.031144    20.977156    18.132382
Si    34.803012     6.416892    20.073343
Ca     0.994472     4.672693    19.939416
Na     2.945886     9.470917    12.034788
O     26.476072    20.863541    21.930195
Na    27.438067    34.214993     0.489295
Ca    34.053940     1.300238    16.812307
O     10.697901    30.126770    24.306857
O      5.992683    33.574149    20.968021
O      9.876939    34.590561    27.524772
O      7.660677    28.550763    30.412304
Na    20.901297    17.739942    36.202904
Si    30.591572    35.932764    27.296708
O     34.404709    20.454124    35.743198
Na     7.422916    12.410919    24.109131
Na    29.254769     8.112402     3.454341
O     13.818593    16.213083    35.626889
Na     2.570114    25.348192    29.238035
Na    28.570951    31.907734    24.894520
Na    16.129756    12.173498     9.567618
Si    31.379352     6.267940     0.297019
O     32.827031    34.448159    13.998622
O     20.452230    32.540990    15.484934
O      3.139592     4.418384    19.683609
Na     8.098028    18.366533    26.580271
O     11.189805    35.561191    28.766886
Si    20.710231     3.651188    23.995208
O     30.473978     4.791736    35.783114
Si    10.914206     8.630447    11.228184
Si    14.175413    26.632678    20.079432
Ca    30.195741    21.857290    32.200876
O     13.949016    34.392800     1.517404
O     18.215764    15.987581     6.074893
P      8.223116    21.858805    32.759866
Si    24.350554    17.638880    21.275792
Si    27.794902    29.201653    27.276583
Si    18.113347    19.366284    22.392435
O     20.784728    26.239108    17.109071
Na    17.219274     9.136281    26.836265
O     13.025181    36.234968     6.005275
Si     7.515294    18.814272    29.703131
Na    15.241548    33.438510    25.826746
O     17.970760     7.878568     5.434885
O     18.470094    21.582784     1.516237
Na    11.636208     8.777659    21.713389
Si     4.848277    28.959359     9.450002
O     29.494165    27.534598    17.601908
Ca    27.271645    20.450907    33.147321
O     15.903803    13.342467    34.259621
O     30.893173     6.135953    26.987847
Ca    15.212762    22.127544     7.255826
Na    12.146479    29.345970    21.860491
O     18.086775    27.283664    16.702078
O      1.169594    27.822197    31.907195
O     14.158811    19.690177    26.373255
Si     0.651165    22.162371     8.002930
O     22.166039     6.659365    15.933473
O     20.554062     3.230564    29.234809
Ca     0.220274     2.267149     9.536073
O     14.542469     8.681670     8.062440
O     27.789986    25.047845    12.728338
O      5.145361    19.652139    33.265142
Na    15.553856    26.436567    33.368858
O      7.274136    34.293457    20.221916
O     22.174174     6.552450    23.178144
Ca     1.896369     4.777693     8.371731
O     23.626433    14.291786    26.589836
O     16.061595    30.928460    18.659653
O      7.055264    15.346982    10.930199
Na    28.988495    27.077920    33.285987
Ca    19.625963    15.921595    11.125100
Na     4.722084    24.408351     1.067183
Si     2.109578    31.678653    11.367181
P      7.517456    27.723257    35.331959
Na    12.606197    33.493182    34.237048
O     10.949599    22.775402    25.651096
O      4.171381    29.333724    18.039106
O     32.296728    34.033202     3.046255
O     26.231117     8.356958    30.819825
O      0.547593    15.171901    13.168982
O     20.546491    14.441336     9.955739
O     35.282562    35.226292     8.699724
Si    30.182712    32.591519     4.822688
O     27.990033     6.448413    18.432837
Na    29.246103    10.128742    18.976299
Na    14.043936    33.766211    20.637228
O     13.802550     3.203295     2.934932
Si    24.245602    29.278904    33.008432
P      4.379865     8.241930    10.015394
Si    26.129828     7.977326    25.135707
O     25.569833    20.835308    18.066473
O     32.491197    20.922145    35.934217
O     30.099299    32.492181     6.718639
Na    17.392177     6.871477    10.913220
O     20.980015     8.524350    21.954934
O     30.014625    30.949064    14.641863
Na    10.687609     0.366164     7.372804
O     22.388405    17.464971    21.036447
Na    20.187563    17.487331    17.498805
O     23.231167    26.769470    31.012716
Ca    14.289082    29.735313     9.678693
Si     9.677667    12.515171     6.387162
O      9.509406     9.049396     5.779487
O      9.461545     0.419177    28.729436
Na     1.814994     3.484626    15.565372
Si    19.625646     5.901357    11.541814
Na    28.623372     7.661396     1.028562
O     14.369112     0.620757    18.819863
Si    14.132308    31.843878    35.143261
O      5.899171    25.123302     6.045475
O     15.664858    14.653794     8.436158
O     17.548690    11.207410    18.684793
O      1.885494    15.649386    31.524460
O     26.102180    27.740163    12.944361
Na    20.499865    21.933712     6.983898
O     32.660226    13.110827    26.248774
O      2.872303     4.996981     2.546390
O     29.127938    22.382622    20.469989
O     20.256038    24.429531    11.058802
O     25.855945     0.433147     0.195940
Si    13.475625     3.809390    27.889081
O     22.894435    24.659082    13.192621
O     30.013263     3.165550    26.861716
O     21.784546     1.786612     6.771201
Ca    30.129447    24.275117    29.895821
Ca    25.270586    35.543950    34.900135
O      1.741255     8.829164    15.869020
O     29.971675    12.054888    17.589915
O     35.616945    32.811071    35.216233
O     31.505560     0.195331     7.330391
O     20.396906     5.028472    25.815622
O     34.310927    32.182300    34.208824
Ca     7.091984    32.737765    30.021248
Na     0.792988     2.570849    33.331747
Na    35.857840    11.413763    27.993464
O     31.150566    21.414305    14.808904
Na     9.256358    32.592046    12.073341
O      7.760894    12.078600     8.812313
O     17.437699    30.269238    11.446482
Na    34.581244    22.193729    34.654387
Ca     5.317283    36.227454    25.883357
O      4.624975     0.733917     4.701638
O      2.042461    26.789787     9.058427
Si     4.334452     3.850847    34.138777
Si     3.645270    33.292072    15.865862
O     18.474903    31.879935    17.549102
O     11.896496     7.395408    25.213326
Si    13.175596     7.539775     7.326100
Si     2.771670    31.203581     1.631789
Si    32.729968    21.669442    30.589443
Si    35.081388    26.147218    32.921235
Si    14.278363     8.890038    27.245862
Si    11.654554    28.568483    23.861896
O     16.039584    23.299730    18.699308
O     13.404912     3.770771    27.820706
Ca    35.388358     2.162304    25.918116
O     29.154345    35.321152    10.430747
O     11.352720    13.995966    11.217116
Ca     7.365122    33.127205    34.558152
Na     4.582701    14.677574    14.975994
O     25.867297    16.197650    23.050530
O     18.355182     6.654160    12.743474
O     34.842246    18.974739    30.786841
Si    30.674271    34.315817    12.683978
Ca    15.234348    28.376207    22.191218
O     20.106595     7.918469    15.097464
O      5.326336    28.267234    11.160269
Na     9.004796    17.004806     8.832327
Na     4.092083     7.956207     3.859118
Si     5.920244    25.180998    16.553408
O      5.907763    18.784068    29.679289
O     35.167880    36.251288    27.043299
O      2.628851     6.444156     6.487154
Si     5.487404     4.152823     1.329793
O     29.799515    35.259739    31.459868
O      1.267232    32.988001    12.945904
O     17.009361    23.604764    20.292311
O     29.219209    18.136581     3.809934
O     17.423366    20.117901    27.578687
O      1.860142    20.646223    35.221590
O      1.774394    23.947785    14.388473
O      9.140486    30.469855    14.445723
O     35.726697    27.526546    19.448040
Na    15.554648    24.338719    28.029495
Na     2.394733     2.388689    24.136790
O     27.061794    23.937187    11.195210
Si    16.154830    11.622472    33.696490
Si    19.203163    31.920200    27.203931
O     30.586298    10.597508    15.589658
O      5.836440    22.167872    16.208965
Na    23.035149    35.598141    15.904557
O      9.216958     8.280778    11.930602
Si    11.922379    10.195358     5.542931
Si     4.040010    33.575862    11.800548
Ca    11.545128    32.431611    35.529422
O     31.360567    11.923190    27.922663
O     10.687748    34.650477     9.472720
Na     5.019722    32.946940     3.257252
Si    16.856111     9.700637    12.247934
O     27.706356    32.774446     9.770500
Si    17.225167     7.549182    21.279479
Na     5.331002    30.674174     7.733336
O     30.244906    16.984632    20.953225
Na    13.497111    27.947278    30.384624
O     36.132717    31.601548    21.416203
O     30.601151    22.149257    16.169796
O     15.490154     0.850455    12.663316
Si    12.196505    34.139493     1.220714
O     35.734875    34.442221     3.249611
Na    11.783422    21.757476    17.597426
Si     6.216540    18.261663    35.380759
Ca    14.776186     7.785021    12.130493
Na    23.884318    26.246790     1.467916
Na     7.931659    25.344127     7.342539
O      0.453003    13.164262    27.702843
Si     6.546170    20.316817    21.005531
Ca    21.087709     7.950425    35.079403
O     18.880373    21.030602    19.631099
Ca    21.090542    27.539189    11.054833
Si     3.077105    21.587476     5.252661
Na     3.765203    12.991750    22.784000
O     32.124515    32.434983    16.131010
Na    14.580084    27.826135    16.358080
Si    13.119033    34.735596    36.105222
O     10.198423     2.199432    22.903069
O     16.494711    25.141049    34.471071
O     26.125353     8.013595    25.128618
Na    14.029167    27.981916    35.938662
Na     6.364916    24.904079    35.254988
O     30.282702    34.073328     7.888772
O     16.142828     8.255983    22.594197
O     19.350119    29.089561    23.684577
Na     2.248716    17.442417    30.216901
O      5.772247     5.943115    32.165695
O     15.143479    20.484927    25.616160
Na    28.717019    17.220346    35.404929
Si    28.398739     7.164178    16.722326
O     29.387331    13.349033    35.172214
O     31.011470     0.309908    18.158431
Ca     7.094463    21.044926    11.120294
Ca    10.566928     8.999908     3.185117
O     32.337846    23.447078    13.422926
O     33.111858    35.751230    35.340142
O     11.264480    27.834715    27.705245
O     25.773766    29.361172     2.236941
Na     0.227856     7.140606    27.616665
Na    17.892146    23.563975    17.700347
O     24.713597    31.047969    33.451152
Ca     1.677029    10.941932    31.002421
Si    29.303152    11.621945    15.907926
O     34.022205     4.765438     2.969792
Na     3.401869    23.258513    32.111326
O     32.103671     2.842726     7.138087
O     15.969379     8.796100    15.978071
O     17.530581    28.557761    10.935678
O     32.884117    17.191620     0.621956
O     34.003734     5.253100    19.086439
Si    34.912863     3.030538    23.474567
O     27.680457    23.835159    21.318835
Ca    32.482095    31.505369    13.138776
Si    16.810595     8.710853     8.299063
P     34.066907    18.564782    19.497432
Na    25.551109     7.239931    19.281524
O     32.730393    23.856340     7.595769
Na     3.477280     0.073440     3.273296
O     22.543800     2.745012     5.255865
Ca    10.284101    21.949493     2.205459
Ca     7.003543    12.566501     6.334777
Si    31.150903    26.951170    32.059882
Na     0.403761     0.375930    28.993993
Na    18.896430    31.764711    20.502182
Si    29.445090    33.621539    27.795466
O     21.551215    34.555132    13.093776
Na    19.976326    34.194355    23.502072
O      4.384303     8.252723    10.035315
O     15.780347    33.103952     2.522457
O      6.069121     2.044908    28.383254
Si     3.316489    35.961579    23.312755
Si     6.180975    14.483556    16.216303
Na    30.170371    26.328010     2.642531
Si    27.728562    32.796139     9.771956
Na    18.167492    17.860839     4.611596
Si     9.008344    27.310156    34.545401
P     15.753512    19.115324     5.375520
O      6.923998     3.484184    13.634220
Na    34.593078    32.083185     2.186646
O     21.981356    12.721636    20.961064
O     31.988930     0.165079    19.817933
O     16.047479    27.822841    32.066386
O     17.721361    33.227967    17.225767
O      4.030195    33.576520    11.794680
Na    33.207532    22.180173    14.600088
O     23.366309    19.202146     5.386298
Na    34.747971    28.859596    31.346622
Na    35.450091    15.495435    15.271912
O     30.290295     4.343646    20.124658
O     18.421145     6.248332    36.235940
Ca     1.022338    23.757161    27.306472
O     14.876441    26.282739    36.212599
O     34.204708    16.562819     2.715390
Si    31.777750    11.171282    27.545599
O     29.573979    10.057138    10.214891
P     19.477048    21.921182     0.449524
Ca     9.153463    34.988604    20.377587
O     16.489054    19.984082    21.381257
O      4.028690    18.537715    21.828295
Si    28.350235    15.528523    32.012598
O      4.903455    10.826687    19.742097
O      9.556309    28.498979    31.056843
O     20.053872    27.583301    17.557742
O     12.069531    24.657763    29.615330
Na    28.433972    32.067264    16.116302
Ca    29.472188    21.043945    24.595646
Si     8.739404    26.008042    27.185043
Na    24.419248    32.305898     8.459563
Na     9.988528     6.776296    23.655400
O     34.261258    27.640365    17.243525
O     32.876642     7.396539     0.393221
Ca    33.483225    13.295021    31.086251
O     10.446230    24.226150    12.713287
O     12.716981     8.096601    15.788358
Si     5.151376    31.862358    10.395441
O     20.825558     6.159818    36.156283
O     23.200324    24.444170    15.226897
O     34.899139    35.102130    10.614069
O      1.096686    14.727974     5.710623
Si     9.455036    32.452695     7.424935
Na    11.996837    31.906547    30.251971
O     14.622448    23.867334     5.989869
Ca    23.785008    17.897636     6.918035
Na    18.071603    18.039657     2.679121
Na     7.761633     1.908279    15.229401
O     36.058311     7.965125    17.869383
O     10.561804    24.164459    26.818461
O     24.992712     4.135906     7.043813
O     13.966019    29.692194    24.875462
O      2.425443     8.163975    10.619945
Na    14.862138    31.469635     4.465882
Ca    20.567074     3.430477    34.464983
Na    33.501873     4.991512    17.171349
Ca    11.722841    13.279992    18.545807
P     13.268341    14.082770    11.453886
O     16.405894    28.129685    34.061601
O     22.046584    32.915304    35.258916
Na     5.581741    34.423279    28.664932
Na    13.490237    15.651095    20.454766
Si     8.849703    33.320318    15.843733
O     30.266402    12.049661    29.072458
O     30.997281    18.483430    20.883048
O     25.461051    34.083052    20.825155
O      8.659435    22.199811     5.927419
O     36.256837     9.053557    31.929370
Na    35.413136    35.928569    16.095235
Na    30.096638    21.974345     4.805217
O      3.363067    13.068746     2.619234
O      7.864926    10.309688    20.837571
Si    30.278823    12.073517    29.051413
Si    12.526846    11.936260     5.782084
O     25.355046     8.921241    18.125741
O     12.014703    27.262528    36.249095
Na     7.073742    32.157902    15.796775
Ca    17.434413    10.837296    23.664877
Si    19.417519    16.047734     4.611813
Na     1.114234     1.990776    30.865475
O     17.516364     2.359483    30.550562
O     27.979128    22.597445    32.115257
Na    14.989889    12.999239    22.950482
Ca     8.013862    16.485996    22.453158
O      4.719054    19.899985    20.630144
Ca     1.471346    13.758758     1.864542
O     16.165609    11.580795    33.692406
Na    16.191014    32.411619    23.421823
Si    35.425798     5.001457    16.326080
Si     9.126816    30.485815    14.445910
O     27.138654     6.696186    26.203968
Ca    11.203857    15.962994     7.303750
Na    20.782022    19.632586    11.704026
O     20.833605     1.698489    16.720417
Ca    26.820538    26.114696    31.401584
O     20.818478     2.633492    21.592742
O     17.711350     5.186865    29.623386
O      1.465530    10.503426     5.654981
O      9.498782    26.610893    31.227419
Si    17.285108    33.933806     2.309841
Si     7.958603    34.813246     8.121142
O     12.518204    35.122449    27.189563
Si    23.720973     3.811613    32.152517
O      4.790332     3.803856     5.849913
O     15.884697     5.850800    15.791034
O      4.236896    31.798682    35.978116
Ca    19.370966    30.508607     8.273582
Na     3.711218    17.566684    19.299739
O     28.625021    23.094449    24.869648
O      1.562378    27.182967    30.258019
Ca    26.481007    35.522327     4.757072
O      1.162181    16.172383    19.354265
O      8.623408    24.222095    26.659538
Ca    30.447930    25.985656    10.919330
O     15.431146    27.953828    13.453136
O     19.374360    16.953295    21.573818
O     10.430759     2.132801     1.548147
O     18.197896    18.058894    18.859669
Si     7.002458     0.951247    33.439424
O      9.746600     1.071078    22.226094
Na    20.053741     1.497248    30.719752
O     21.507448    27.429252    33.448943
Na     2.066351     6.263643    16.907728
O      4.923479     7.836337    11.889911
O     29.375070    17.445088    22.142099
O     14.168248    33.329483    18.485477
O     33.836495     3.250208    34.545231
O      1.404347    26.192768    20.975412
Na     2.197794    18.681317    15.651512
O      7.770781    27.563603    10.728975
O     26.901912    11.663983    23.837302
O      9.393380    20.901550    14.937634
Ca    32.346722     2.623393     0.571883
Na     8.152231    14.349013    26.466755
O      5.314481    18.504759    14.941062
O      9.388901    19.191742    23.421974
O      0.556832     5.884465    15.397031
Ca    35.833589    20.235617    13.534113
O      7.555723     1.785843    19.483979
Ca    31.879392     2.306495    32.371873
O      6.900899    31.418754    19.645023
O      1.712439    12.411943    19.479983
O     14.600195    23.939538     4.053860
O     11.137975    21.307652    14.012023
O     25.788716    17.697949     6.516380
O     14.131009     7.809411     0.890417
Na    15.666834    10.717601     6.086345
Na    16.301085    28.622988    12.431139
O     20.552222    14.683579    18.435191
Si    13.971156    29.687480    24.845471
O     20.035584     8.815883     4.555059
O     18.192184    33.476993    10.116651
O      6.076984     6.833946    10.825777
O     28.644259    24.825252    11.802374
O     26.751174     4.362298    24.193048
O     14.448535    33.588079    34.997861
O     15.339206    22.398456    31.502244
O     12.246703     1.522468     7.746193
O     22.633934    10.927353    14.494343
O      9.022607    15.698452     0.469813
Si    10.990026     3.378414     0.846230
O      3.891618     2.361474    34.932279
Si    31.860875     9.599665    22.202595
Si    12.093049    14.104588    24.785243
O      5.582874    13.893037    22.916427
O      2.045820     7.792875     3.022992
O      2.755249    31.194159     1.626559
O     32.265678    18.478299    19.327078
O      3.609778    25.074248    33.950529
Ca    22.144937    14.158094    30.732757
O     28.684361     3.285905    31.902240
O     10.166222    13.337753     9.640893
O      8.316439     7.805255    21.382611
Si    20.438828    14.427092     9.816570
Ca     2.772301    23.759111    12.310005
Si    29.679837     6.523642    15.486747
Na    31.215783     9.209167     6.658151
O     24.365179    30.194882     0.990262
Na    28.133960    20.620055     8.808623
Ca    35.954791    11.060863    30.613484
O      4.044687    22.289475    23.551965
O     32.669044    26.591281     9.782759
O      7.314054    23.729420     0.274461
Si    13.102505    19.169974    26.949010
Si    11.437354    18.693374    31.162138
O     31.220890    14.223630    30.306984
O      3.080930    21.591161     5.221487
O     21.329914     7.296726    32.992674
Ca    34.666556     4.348886    12.418610
Si     4.478070    17.471802     8.832685
O     17.926237    23.686779    10.419128
Ca    15.064311    34.941366     1.990937
O      7.242869     0.143737    26.139369
O     24.648147    22.498689    33.228351
O     32.536327    29.523902    17.293553
O      1.368290    32.592305    25.180070
O      4.179296    30.084646     1.977474
O     13.227869     1.569918    17.984152
Na    13.877026    11.530529    27.031456
Ca    22.195575     2.787038    19.814438
Na     4.741662    12.155726    29.144289
O     33.996926    13.467690     1.540248
O      2.488185     4.109153    34.068608
P     31.415132    19.097282    30.547565
O     15.221441     7.972598    14.304519
Na    20.275932     1.909910     3.146767
O     12.665603     2.480027    36.205394
O     33.347192    22.950127    23.010940
O     24.047854     8.754547     4.770484
Na     5.641905     6.248535     8.564892
Si    19.681485    22.877401    10.161668
O      3.404525    16.688493    14.543693
O     13.205545    30.342141    34.788151
Si    15.418043    28.595383    30.173185
Na    25.693177    25.123045    22.552446
O     10.402419    23.437971    31.198717
Na     9.753727    36.133319    11.667856
Ca    16.603421    21.881612    26.435879
Ca    22.811244    15.326502    21.698046
Si    23.331137    27.353840    32.846549
Na    20.845799    15.183819    20.332872
Si     4.309868     4.930943    24.331428
O      4.166756    21.609582     2.064792
Na    19.954071     6.188530    32.021569
O     30.488862    21.754723    26.121156
Ca    10.593769    20.212256    25.086654
O      6.437279     9.116788     1.607564
O     12.735931    14.072529    13.328896
O     27.909149    27.497237    20.906931
Na    24.269140     0.272018    21.106555
O     14.475568    31.447105    25.211620
O     23.403521    33.650768    28.875585
Na    28.912964     6.553654    27.770408
Si    25.160693    30.997856     1.630610
Si    34.992998    36.169534    32.983161
O     15.075289    10.070248    33.618340
O     10.167286    19.264829    31.956705
O     35.111381    32.987617     0.749101
P      1.451977    10.513037     5.641021
Na     5.323305     0.947089     2.818201
O     13.232800    14.093975    11.446150
Si     0.036676    28.583402    23.931817
O     19.795410    28.426925    25.107342
Si     1.155685     3.167305    25.815835
Na     4.192771     2.294085     7.270565
Ca    33.114967    28.325926    33.201424
O     29.074474     0.703376     3.991634
