2835
Stage 1: Gelation N=2835, rho=0.9998, box=46.7700, NC=0.386, bonds=459, seed=42
O      1.200022    28.997291    40.505124
O     14.346287    33.916571    22.198190
Si    36.889070     0.683470     5.199088
Na     6.443104    23.196592    30.108129
Si    32.572470     9.852537    14.047940
O     10.009111    15.926599    35.758898
O     39.776415    26.278813    29.504259
Si     7.386212     9.260790    13.693494
O     28.950593    33.199189    42.100318
O     22.360981    15.600365    19.781113
Na    24.582319    30.318333    30.911502
O     31.577660     3.140761    46.432389
O      8.562014    37.477906    22.585428
Na    36.150153    25.568217    25.046722
O      7.486603     5.751457    45.094917
Si    12.433160    15.096836    11.391343
O     41.937324    36.266935    14.387966
O     32.733599     0.991468    25.757257
O      1.377867    41.281639    41.496482
Si    29.031021     1.937275    21.595999
O     15.105789    24.424133    39.560945
Si    16.205692     8.284975    31.294352
O     24.332341    41.448703    33.822988
Ca    25.018938    25.158388     3.416733
Ca    15.733046     5.274355    45.438040
Na     0.192396    19.157230    12.270207
O     33.658062    46.373033    37.623627
O     31.302829    22.356512    24.769569
O     15.206504     2.587540    21.097769
Ca    35.394387    33.851025    20.608037
O     20.567823    33.813885     8.420579
O     25.411019    24.606086    37.054309
O     27.254923    12.386732     7.627653
Ca    12.598878    30.947047    17.981386
O     43.372452    25.899172    39.437351
Si    34.820010    45.113806    15.216716
Na    43.171235     5.065431    32.871659
Na    46.031741    42.697071    18.777579
O     37.508833    14.175285    20.601361
O     29.218973    37.264868    21.256056
Na    46.373641    36.074306    14.215037
Ca    40.733183    22.724431    24.274862
Ca    42.619154    31.218236    44.287830
P     16.465411    33.174502     0.979183
O     17.405620    23.646965    25.657163
O     35.082663     5.866030    36.055524
O     26.478484    30.924422     5.300004
O     44.370289    42.447293    16.864131
O      7.460869    26.520772    41.454807
O     14.960096     1.318078     6.675136
O     39.708386    34.115050    22.368525
Si    40.768230    29.558615    20.224316
O     21.733142    10.549728    28.680890
Ca    33.273270    38.860649     7.624052
O     26.132219     7.143039    43.633551
O     33.947681    28.254491    38.918144
O     18.647010    43.134858    16.764357
O     10.920585    37.653672    29.687332
O     35.895773    36.505642    29.184215
Na    25.830476    37.480312     5.576848
O     39.998548    19.414693    46.000518
O     30.679981     3.787808    40.021004
O     42.494774    46.495737     0.982626
Na    25.126236    45.575325    32.733372
O     24.480918     9.011374    13.146955
Si     2.761458    16.920073    25.272095
Na    30.225411     9.855530    35.546799
Si    30.748373     1.736015     0.276489
O     43.698691    28.906852     0.362023
O     29.053742    23.821369     3.508152
O     10.533391     1.573091    42.662545
O     13.972721    30.604002    46.083844
O     22.676885    13.659038     1.307212
Si    20.739068    40.968299    24.588277
Ca    11.310774    10.251065    22.777100
O     20.085980    19.381360     9.650277
Na    40.808400     1.471139     6.484717
O     24.738578    36.034712    37.426497
O     24.699128    36.696686     9.900069
O     11.309543    33.758419    33.502713
O     11.574360     2.214808     9.056772
Si    22.552078    44.967878    30.450480
Na    46.227550    42.213826    27.016701
O     44.136519    23.379176     9.960725
O     42.427715     5.969768    13.463101
Ca    34.428552     6.192081     2.294319
Si    24.034092    11.831994    43.726492
Ca    24.644950     8.717531    21.314339
O     27.800126    13.496809     2.089985
O     45.049197    45.708095     2.318427
Ca    40.288252    13.859444    13.501942
Ca    12.412886    28.108805    41.581212
Na    39.173422    12.122876    36.074891
O     36.053013     1.255147    25.517297
Na     9.534275    26.431098    39.558960
O     18.582280    39.447964    30.062219
O      6.719364    14.862843    32.684090
Ca    30.363036    46.058376     0.330335
O     26.755158    14.859287     6.496780
O     45.012712     6.342537    38.294907
O     33.253932    16.808895    17.418887
Na    32.022988    24.001055    11.489004
P     44.099753    34.267020    10.162159
O     25.589911    16.931006    20.068443
Ca    35.175499    28.892393    32.929887
Na    13.508728    18.887537    15.851150
O      6.084696     0.564826    35.177645
Si    19.917020    30.488541    40.569512
O     13.762541    20.420495     2.621668
O     38.241266    12.468940    22.330430
Ca    19.523310     8.028261    10.499460
Si    13.159580     5.406948    11.246029
O     11.401127    24.361900     3.070871
O     37.989898     5.586309     6.799002
O     34.550018    19.867367    13.289620
Si    40.917452     8.872796    10.396171
Na    39.522915    41.573188    23.051466
O     11.982634    40.510377     7.435292
O     43.724962    12.655024    27.007076
O      1.768574    39.585332     3.235613
O      8.975333    34.134374     6.290628
Na    17.948637    18.098563    12.704722
O     30.349579    17.399516    30.294969
O     34.182626    28.696799    25.683725
O     15.394244    11.102562    15.893637
Si    42.299087    23.420387    35.369300
O     17.438859     2.738354    34.554728
Na     2.149353    16.430592     6.246079
Na    12.548079     6.063535    21.199451
O     43.212426    46.241709    36.058627
O     24.437439    13.477066    44.306794
Na    40.223649    15.600362    28.456200
Na     8.236643    14.992944     2.065729
O     41.857680    11.946885    30.087408
Na    27.645619    22.009594    38.530354
O     21.188980    20.786879     7.821093
Si    43.939708    21.956164     8.904369
O     20.215080    23.878349     6.834894
Si    14.629607    18.776020    12.225367
Si    41.985123    31.449329    11.043505
P     45.409806    34.017942    17.490164
P      8.270354    28.591159     0.522799
O     42.523202    25.788494    28.312392
Ca    44.602101    11.637753    10.289977
Na    46.515554    29.345612     7.192800
Na     2.287587     6.286167     0.206809
Na    44.545630    33.141518    13.086257
Si    20.874414    38.478699    11.279136
Si    18.496486    14.035496    22.754158
Si    41.463818    43.631847     4.566217
O     36.113146    45.859998    14.463758
Si    41.137356    13.365229    39.133505
Ca    38.959731    14.244587     1.519266
Na    26.212644     1.049200    15.494946
Ca    32.892313    18.743450    25.452978
O      2.110629    23.884480     0.620347
O     44.961589    20.421750    37.447809
Si    44.955738    42.366732    32.855186
O      7.102071    44.553624    24.486947
O     36.391381    12.941893    32.802155
O      6.608773    39.691341    12.284062
O     37.964360     8.698298    21.142246
Na     7.549748    13.294358    41.931389
O     40.756419     9.418549     8.730931
O     22.075728     3.673229    11.873662
Ca    42.845740    44.467224     1.208418
Na     8.934273    43.452919    20.749761
O     18.314636    44.913919    45.432002
Na     5.948134     0.524521    19.121370
O     44.317349     0.480002    13.484968
Si    25.837587    23.465340    31.927450
O     39.758420     9.993923    11.312758
Si    36.525721    20.969521    43.338713
O      5.388286    35.192704     4.332251
O     42.027728     4.700326     5.062743
O     38.654007    23.643216    40.612376
O     20.736737    37.035210    24.760500
O     46.616974    33.092623    43.616704
O      3.222190    11.804622    40.204122
O     13.637944    16.047929    19.328434
P     41.702502    16.467657     2.151596
O      3.013222    43.388236    19.618113
Na    14.917649     8.770037     4.263814
O     45.447480     6.267032    26.605489
O     17.821735    15.563296    23.350945
O     23.397177    19.324865    28.221000
Ca     8.199740    45.995778    15.867619
O     23.817136    44.613981    29.115754
Na    19.142229    27.094208    29.748617
Na    32.824570    22.964285    39.782871
Ca    26.865866    13.008740    44.708632
O     30.365103     6.146985    22.482423
O     35.505501    22.239362    44.311106
O     18.128505    39.675959     7.838321
Ca    10.183866    27.886903    45.584582
O     31.814189     3.556865    42.970214
O      4.261327    10.106629    22.578119
Si     8.016403    45.710416    23.270278
O     24.513195    29.657694    44.564437
O     24.938558    43.843778    45.993489
O     12.378348    35.158170    26.889580
Na     3.691521     5.207571    35.367531
O     19.025447    36.672009    40.816869
Na    43.112923    15.430185    34.835232
O     30.668853    35.072982     6.102001
O     36.651956    11.353327    37.536048
O      0.181616    22.637741     6.651086
Na    35.394827    11.843880    26.546173
O      9.812459    14.318002    46.199651
O     26.030890    19.321133     7.085662
O     20.465582    21.663912     4.998602
Si     4.052626    10.565878    20.395040
Ca    28.652626    26.698119     8.543912
O     14.534409    22.027554    40.488760
Si     7.200340    19.772897    28.979736
O     21.996562    14.459498    26.519625
O     44.906337    32.796648    17.142550
Si    26.377913    37.053383    36.567405
O     19.254944    19.240764    28.310828
O      1.904802    40.520029    29.255540
Si    30.999519     6.083966    12.741669
O     21.502257    13.655782    10.737476
Ca     8.857236    34.313929    16.644972
O     29.123957     3.230227    42.421080
Ca     5.431269    25.583212    28.809153
Na    33.185725    34.824026    14.148242
Si    35.834678    40.141351    23.606521
Na     3.715975     2.509093    24.912886
O     30.238213    37.916995    40.872319
Ca    27.390653    10.371669     6.026919
Si    43.045513    27.811689    31.037991
O     26.001425    46.722364     3.452344
Si     5.022862     5.393415    28.975094
O     33.534913    45.052994    40.599664
Si    18.501397    36.744326    42.667999
Na    41.717691    27.639125    29.686318
O     17.746597     7.552251    32.095645
O     45.984012    33.054934    29.304556
O     39.494025    25.506891    46.454061
O     35.962667    36.865718    35.281064
O     23.806904    28.474540    41.796807
Na     0.631510     1.565538    30.161878
O     40.504179    30.813039     3.534254
O      1.775464     9.505324    29.286840
Ca    17.865634     0.026732    36.097265
Na    41.252872    39.994756    20.458727
O     45.343238     1.942791    29.627133
Si    19.151166    38.086193     7.510960
O     39.311104     9.131421     0.129406
O     23.110922    21.392465    14.875451
O      8.469929    19.411178    18.631544
Na    14.264266    15.845932     3.045360
Ca    12.948897    28.306934    45.498080
Ca    36.464637    24.478741    21.701534
O     10.664488    12.048025    22.323248
O      1.585887    18.452124    24.962683
Na     9.020022    30.061967    20.734850
O     20.819437    12.152347    16.359608
Si    45.401483    33.106767    22.779637
Si    22.543297    43.101768    23.085693
O     19.402316    17.812373    16.699001
O     28.236686     5.541233    27.868796
Na    14.055809    14.249148    25.139872
O     19.137328    37.659244     1.796906
Si    38.656523    29.501822    35.505878
O     37.223731     9.838461    43.939302
O     10.204809    21.293578     7.435742
O     14.729096    14.488668    40.560309
O     16.990386    17.716291     4.731251
O     16.039609     6.555146    24.934812
Si    29.622227     8.107040    15.653031
O     27.210117    27.220861    23.414068
Na     0.332898    18.994254    36.356697
O      1.725572     7.737205     1.967762
Na    11.296525     3.758187    13.917219
Si    20.261771    21.966939     6.949553
O     12.471572    23.872920    11.680697
O      0.574848    18.301152    14.489259
Ca    22.483760    34.932405    10.813948
Ca    39.679940     4.638920    22.385145
Na    16.485799    27.000987    16.229522
O     22.855632    19.826462     2.006337
O     21.960407    43.435485    31.392797
O     42.929801    33.026376    10.830238
O     18.332647    32.037326    40.974424
Si    21.284314     7.447205    23.453941
Na     9.932374    11.945631    12.664843
Na    14.457064    21.498281    37.058944
Na     6.257939    19.828544    23.633473
Na     0.610835    22.529895     8.593198
O     10.202289    18.427453     7.269145
Na    39.660182    34.883215    24.465476
Si     2.042336    41.395750    33.167308
O     25.143151    18.193816    13.791120
O      6.186206     6.180036    24.324857
O      8.309141    27.578011     9.612417
O      4.123845    28.292233    10.317613
O     21.803114    25.048443    29.808538
Na     2.656757    28.306094     4.935811
Na    32.707698     5.018007    14.745117
O     38.907916    18.086899     1.171447
Si    12.375928    33.072152    45.958961
Ca     1.495634    41.847469    21.891541
Na     8.228252    15.924653    17.462379
O     42.942618    46.737224     4.785673
Si    28.574114     1.714588     7.477080
Na    38.849784    42.490720    12.373849
O     31.602926    25.891771    10.455350
Na    14.162330    12.327481     0.658216
O     31.252520    15.772251    19.816493
O      8.499376    32.006767    21.188672
Na     1.554214    13.942868    31.868932
O      8.574515    10.864642    20.389976
O     20.374562    21.130408    24.322702
O     32.393049    45.559047    35.093423
O     21.789224    10.579524    17.925211
Si    39.511861     1.916302     8.406813
O     39.065002     6.722406    30.121443
Si    44.367516    13.800503    27.017983
O     29.004719    30.864002     3.977308
O     32.560980     8.019390     8.775137
O     30.940117    45.214892    29.133523
Si    28.396440    45.942915    16.773890
Ca    23.409758    18.446529    20.122358
Na    36.017895    15.331620    22.593747
O     27.575379    41.490129     3.554123
O      2.129009    18.298272    10.927244
P     21.297072    39.528733    14.961611
O     34.984008     9.408487    30.873288
Si    19.405600     2.311817    17.295961
Na    11.799476     6.262400     8.677153
O     14.531390    43.360622    28.912929
Si     7.359217    34.223421     8.950705
O     11.935087    26.014082     4.161784
O      4.307756     7.821764    26.756279
Si    15.515819     6.788346     4.924470
O     24.209134     6.715177    32.425076
O     15.971337    21.650565     7.684256
Na     0.596998    35.811345    27.432549
Na    43.924702    12.624747    29.428393
O     13.958052    12.869432    14.782294
Si    14.486474     5.934892    25.785107
Na     1.007416    17.336762    26.705221
O     32.807127    11.100902    15.249632
O     40.125673     7.595019     2.004813
Ca    10.673477    16.284434    25.162602
O      7.661252    28.135109    27.280715
O     36.360751    41.401682    24.086040
O     13.743555     6.874399     4.125283
Na    13.424854    40.297786    16.523324
O      0.262897    40.760735    33.768779
O     35.555831    19.284818    43.875738
Si     6.550949    22.344213    19.557488
O     39.251290     0.543343    35.432215
O     12.638262    17.078611    17.935367
Si    19.963272     2.320218    31.287870
O     23.451507    45.314030    15.891903
O     34.027721    30.418785    40.268743
Si    31.773178    10.262428     4.499177
Si    35.922104    36.161053     9.891339
Na    24.603851    32.448584    14.215252
O      2.820781    26.790148    37.670565
Na    10.794964    44.192154    39.672755
O     10.181203     6.477349    24.974340
O      7.828271     5.109668    23.755725
Si    22.913634    43.773396    26.761468
O     25.429952    27.141837    41.472703
O      8.949048    25.730707    28.270802
O      1.227494     5.945335    33.284524
O     19.599748    28.925103    12.101631
O     24.769140     4.793013    11.277068
O     25.397587    19.243730    27.659559
Ca     0.221385    12.383401    27.062502
O     17.885339     7.823098    27.044604
Si    24.233017    37.836686    14.939015
Na    27.466943     7.567783    31.325811
O     12.548549    44.400625    22.255583
Na    16.112187    43.812257     7.488822
O     41.126875    29.484336     6.156238
Na     7.653800    35.988541    16.585883
Ca    17.533735    41.237849    16.893498
O     30.767530     1.011417    44.120134
Na    39.508254     4.599575    31.832489
O     13.446992     6.734679     9.956824
Ca     7.727921    25.645986    44.129750
O      4.137179    46.255892    29.840518
Na     5.752866    25.889474     1.216378
O      5.573070    32.013788    20.673658
O     14.467053    38.940938    26.290930
O     11.486392    13.436541    31.382197
Si     8.267047    40.060863    35.473313
Na    14.442673    12.155363    17.430022
O     20.350677    20.886604     1.938645
Na    20.616460    22.606630    33.653534
O     38.104511     2.825407    22.709730
O     13.737323    17.159704     8.332159
O      6.227982    37.400073     6.049790
P     20.645125    19.360991    24.125963
Na    38.558170     1.214071     2.889085
Na     2.294382    17.059913    13.295110
O     31.728192     4.698483    12.110139
Si     0.501695     9.776898    24.556549
Si     7.691454     2.051276    20.405828
Si    22.974040    18.696019    26.373850
O     34.313857     5.127515    41.993589
O      2.791910    42.007201     3.449581
O     25.185241    37.797785    13.322340
O     28.359490     8.073897    44.767505
O     46.043073    16.698916    20.924591
O      6.564668    30.199821    44.408407
O     40.201322    46.543532    29.423577
O     25.501928    22.002601     6.285564
O      3.512219     7.943141    38.694663
O     19.404700    23.817287    45.907145
O      0.924582    45.312312    18.396696
O     29.549993    20.385251    39.273975
Ca    27.909412    26.480848    41.508077
Si    31.233537    20.502561    38.796970
Na    11.157877    20.945741    22.765721
Na    25.998381    22.409361    12.480621
Si    35.946963     5.038668    42.838680
Ca    38.701553     3.249502    25.303226
O      3.953246    17.508855    32.697489
Na     6.352196    15.011530    12.649113
Ca    46.245665    42.656415    30.384943
Ca    43.090857    18.375883    32.278494
O     10.309111    39.426502    20.257647
O     45.097564    25.052016     5.681733
O     40.803961    13.355795    27.697573
Na    40.013141    37.975005    14.312471
Si    30.501443    14.740241    36.763407
P      5.923537     2.498965    44.324907
Ca    35.076980    31.446864    32.476312
Na    15.874861     0.450829    22.890601
O     16.203722    44.503161     0.885627
Na     9.708920    28.418144    16.649882
O     15.440292    21.421683    24.437609
O     10.545993    36.288733    24.450231
O     10.364669    11.851083    17.946476
O      3.716166     2.374600     4.089181
O     17.663271    16.390903    16.027170
O     26.086919    14.786514     9.377835
Si     9.738804    11.717196     1.308146
O     24.047599    41.341810    20.995086
O     26.284726    43.599025     8.858412
Na     9.832342    27.513346    19.649619
Si    44.591407    17.460123    34.774676
O     22.018584    19.763817    17.409732
Si     8.320899    27.920378    40.763180
Si    27.664478    31.793338    18.428192
Ca    15.465567     1.651997    11.514088
O     35.138026    44.886336    35.667175
O     29.589120    45.595247    17.228841
Ca     2.704369     8.300814     6.061398
P      2.560664    27.248519     0.321614
O      2.121978    44.650112     9.616574
O     18.294783    13.623942    21.019281
Na    28.498664    29.361048     2.250507
O     15.340146    38.141247    36.696326
O     11.149067     2.325578    26.814713
Si    46.544106    28.101240    41.966483
O     19.964658    18.720715    25.567663
Na    15.701902    22.904467     6.191622
O     25.912961    27.553575    39.745043
Na    23.516008     6.933570    44.435587
O      3.830778    29.815089    43.582562
O     22.472074    44.492909    22.110968
O     18.510148     8.913179    12.459042
Ca    40.511877     5.988412    15.205757
O     34.487309    22.475536    36.540403
O     17.732665    28.723556    12.365921
Si    35.161804    12.003903    38.689273
Na    30.681509    45.084174    10.900834
O     24.483938    13.670883     7.611201
Na    20.616300     4.646116    29.319356
O     19.746518    30.446707    38.658238
O      9.244633    12.244995    46.465384
Na    21.966342    19.423208    15.243673
O     45.581369    41.262140    36.274013
O     21.960682    20.016365    12.445310
O     42.540253    36.738664     2.261590
Na    23.862631    18.664947    16.569874
O     10.106193    16.297133     5.708115
O     22.993516    13.951018    15.991183
O     33.073570    27.093506    31.211251
Si    18.259553    42.761648    23.311627
O     41.392088    45.612568    34.279329
Si     4.039724    15.765324    33.394385
O     44.587277    22.200886    35.259447
Na    32.877428     5.658774    40.511524
Na     1.161914    41.122043    18.268004
O      7.520507     4.684801     2.690353
O     26.527992    27.554809     1.903098
Si    11.817676    32.862557    39.705883
P     23.123977    14.117005    22.329575
Si    10.922118    17.176755    17.120308
O     38.906691    26.305881     8.699305
O     33.054373    21.535660    17.894293
O      7.916603    17.549511    21.060937
O      1.352442    38.290399    23.233078
O     10.579486    29.751937    44.463246
O     20.805559    46.241789    42.850407
O     20.282675     4.460073    40.043023
Na    31.625953     0.657223     9.033613
Na     4.989191    33.638725     1.170507
O      7.838847    20.906978    12.255497
Na    35.018282    28.030834    35.622731
Ca    12.806708    33.843002    38.335013
O      5.286478    11.701653    37.848033
Na    30.439540    10.604955    11.325148
O     40.708921    35.324599    43.149127
Si    18.699417    31.765443     7.328878
O     45.122257     5.958007    46.024160
Ca    45.298229    29.989350    40.630967
Ca    33.270164    35.231341     7.762741
O     13.049166    35.616723    31.631664
O     39.057786    29.978033    27.063437
Si    20.578090    10.070010    19.201184
O     14.536432     6.179823    26.861290
Na    13.592353    42.119029    30.093999
Si    31.706850     5.716114    23.738479
O      6.868070    43.918964    42.275187
Ca     0.952175    42.634480    34.345321
Ca    36.048415     1.429865    13.575954
Na    14.574483     0.791968     0.852318
O     20.727485     7.363599    22.290554
Na    22.884205    35.916644    29.549798
O     12.411970    29.751455    42.770797
O     20.685123    37.253760    10.500593
Na    32.571834    33.743774    25.632474
Si     9.653159    19.767760     8.321403
Ca    36.942619    41.705751     8.394395
Ca    14.724284    35.282349    41.997457
O     37.339137    28.399613    36.333425
Si    20.371241    25.973095    30.802099
Na    32.477148    46.523230    43.258942
O     38.780217     3.234251     9.532710
O     20.650482     1.108710    22.329728
Na    42.196267    36.305274    19.399756
Si    36.554785    34.909317    38.049587
O      6.849025    11.042196    30.772959
Na    39.615563     4.840624    44.210530
Ca    43.157717     8.460205    45.215156
O      9.413808     9.191164    22.153824
Si     7.446744    36.135037    23.122250
Na    40.461023    45.874474    21.877982
Na    18.575998    14.464089    19.181250
O     41.386184    27.168715    40.321229
O     27.657647    20.785931    16.946099
O     44.063572     1.547135    24.629599
Na    13.638595    30.944397    13.792800
Na    10.201637    36.394314     0.977770
Si    12.309507    43.803874    11.310571
Si    31.801950    38.267247    10.672310
O     10.027539    35.735877    45.265568
Si    44.577717    11.269219     4.463459
Ca    14.587655     5.159356    33.158618
O     12.905935    32.535702    40.061004
Ca    16.330141    37.884077     8.246969
Na    40.830430     8.352947    17.633830
O     14.421477    24.947372    27.637557
O     32.805543    30.333674    30.768173
O      4.681627     7.753480     9.700337
O     31.811042    37.602924    20.822441
Si    43.770642     6.426090    44.843485
O     17.562670    21.379307    29.519128
Na    14.776644    45.171334    25.444826
O      6.764306    42.482667     6.867838
Na    10.884599    39.423854    26.172441
O     33.761836    31.508385    35.031149
Si    39.416911     1.771583    20.914015
O     46.030617     7.625216    22.428610
O     35.726412    36.662616    15.191916
O     41.536051    25.927517    16.988429
O     45.584584    30.255821    13.917155
Na    21.059719     9.206488    12.078010
O     43.113064    37.033035     7.602886
O      3.774321     0.642682    32.447323
Si    41.459693    41.925779    23.709396
O     31.242099    31.510488    37.248094
O     29.624464     0.239799     7.521346
O     12.256525    35.974736    42.302590
O      9.579229    12.529203    43.458668
O     46.562680    46.433644     1.050207
Si    33.454314    20.216736    29.443837
O     29.073596    33.641122    46.016679
Na    39.771932    11.568427    14.532506
O     21.700572    41.794706    23.370702
Ca    37.919793    29.645240    22.283243
Na     9.608305    34.059345    28.079617
Na    26.405628    46.393158    21.754757
Si    29.444033     5.132496     6.575237
O     42.091001    28.496930    21.062205
O     46.726005    19.109240     9.734727
O      7.351629    43.872241     1.529333
O     43.509520    20.388552    45.460019
Na    34.607633     1.329366    22.190645
Si    41.818999    22.199105     2.967177
O      5.336444    30.733265    10.845676
Ca    33.914345    40.756326    45.431832
Si    28.806549    35.543446     6.043319
O     44.253940    17.629993    36.356727
Si    40.267224    34.603422    37.529728
O     22.359740    40.222909    31.488415
O      3.793085    32.951723     5.329538
O     19.949647     3.212401    24.307603
Ca    15.916081    43.619396    37.265106
O     24.637025    44.629909    43.496083
Na     1.226929    31.141704    29.526867
O     21.123346     7.004732    26.585489
Si    46.162303    16.485546    29.943241
O     34.775204     0.197190    44.167668
O     43.910388    23.695311    18.006692
O      2.098585    41.201552    12.643641
O     39.822932    23.205443    38.463350
O     36.278029     5.804570    10.030821
O     16.821963    37.914380    17.289500
Si    46.626152    32.828270    27.725614
O     33.180794    26.389754    36.600756
O     31.038785    14.207778     3.562457
O     29.709430    11.148974    29.796812
O     36.188295    33.789636     2.076338
Si    45.884798    21.244950    36.384544
O     37.109757    36.870744    10.075864
Na    37.545069    13.311453    37.583432
O     37.468285    44.154966    37.571297
O     43.215349     7.854797    41.394762
O     21.063698    45.521748    29.418845
Ca    10.958048    32.990094     3.114816
O      8.224243     5.012766    10.240769
Ca    19.144692     8.225421     6.563794
Si     1.252074    34.950698    40.061210
O     16.551088    18.860263     7.236388
O      8.950109     9.635975     2.781368
Na    28.532953    29.076101    23.675529
Ca    29.786909    28.145278    28.299161
O     28.595814    16.046985    21.162513
O     18.825730    18.172842    45.995958
Si    20.920044    16.976999    43.093816
O     41.740199     7.054928    28.955868
Ca    39.675538    37.058911    24.236091
O      6.178662     1.358465    30.671753
O      9.018493    15.291149    25.741365
O     38.209716    44.707790    35.762035
Ca     5.135600    33.933447    41.712308
O     11.352644     1.418975    20.836262
Si    13.255420    13.733372    30.835027
O     17.420526    14.383717     8.899917
O     27.719717    21.333187    11.267637
Na     8.553833    15.376503    43.766202
O     28.280637    27.591683     6.268568
O     44.666739    14.337827    20.440613
O     14.758468    46.470683    42.188397
O      3.870854     0.206586    20.733245
O     33.366337    21.380757    14.073902
O     30.344784     0.966184    21.599669
O     24.351945    22.206055     1.209846
Na    40.383531    44.716761    36.606542
Na    18.480068    24.307767    42.165648
O     13.796519    13.643919    32.523975
Si    14.238054    25.864039     4.534781
Ca    28.116188    32.601440     6.180605
O     14.916028    27.964708    32.512081
Na    15.987294    43.686330    16.611278
Na    35.845574    14.291128    14.066108
O     40.086246     8.515749    21.345908
Ca     2.328847    44.228763    43.170420
Si    32.586062     4.430462    45.567982
Si    19.388869    10.373050    38.000063
Na    29.007992    37.160315    13.906127
O     36.421039    30.151368    24.167781
P     27.905043    39.991791     4.424227
O     39.955254    40.682419    45.609885
O     44.365334    44.588308    18.880645
O      5.730627    12.408651    45.538257
O     36.016448     5.114922    38.903463
Si    20.856748    14.242328    27.857827
O      8.069402    22.968726    44.697857
O     44.689609     5.508312    20.787042
O      3.212988    40.378235    32.483978
O      6.506119    37.364360    40.358174
Na    44.832876    38.086445    30.919020
Na     1.189474     5.862689     3.798233
O      0.375309    16.601529    28.817444
O     28.543335    22.365101    42.888963
Ca    39.759467    22.842974    33.337946
Si    32.029433     6.356829     9.475065
O      2.677108    19.480430    18.845005
O     21.585069    38.390997    38.047040
O     19.923512    40.626584    46.212775
O     35.304939    19.510194    30.476097
Ca    22.570589    34.001665    36.767294
O     37.531161    21.991801    35.351750
Si    37.086964    44.300041    11.981630
Ca    42.820603    33.230466    37.321902
O     17.271902    26.049306    14.326526
P     28.547840    28.814187    19.507919
Si    41.131030    31.211145     5.349948
Na    26.539344    32.691368     0.042648
Na    15.259171    42.563569    11.327371
P     45.414959    42.277882    45.305528
Ca    30.242320    37.334980     4.526130
O     26.817745    45.619038    45.001136
O      8.061098    32.421612    17.480935
O     20.005911     6.682192    30.950198
O     19.792783    32.554499     6.433705
Si    37.226910     4.610146     9.575645
O     13.624636    17.703780     1.818444
O     46.007224    11.074875     5.123004
O     38.955936    23.051846    46.491230
Na    46.735536    38.881854    16.130552
Si     2.519876    44.221362    18.477015
Si     7.425739    36.157729    40.199928
O      7.002072    39.672482     8.213470
O     10.542595    42.415250    22.319774
O     28.442114    23.348650    45.462551
O     31.029421    37.126771    43.820596
Na     6.924233    38.244375    24.564958
O      1.069898    40.435296    15.564923
O     11.605869    27.437232    43.892157
O      7.892206    22.537902    10.186498
O     39.218841    21.541159    14.175947
Ca     1.539119    12.141649     3.958806
O     26.545607    30.483532    19.351293
O     45.546359    36.185832    32.098783
O      3.187762    44.882002     4.455231
P     43.291709     0.727437    43.295612
Si    43.115988     7.813965    13.438585
O     36.784317    39.119346    22.391235
O     40.547700    45.212999    14.346103
O      8.130894    35.699495     5.115235
Na     6.357218    31.969022    18.403117
Si     2.279021     6.426059    43.128585
Na    16.661351    18.064417    28.889408
O     41.986428    34.216661    40.138951
O      8.961938    40.869069    13.083187
Ca    45.293701    36.371364    23.448215
Na     9.715691    27.896403    11.965995
O      0.185237     0.341458    13.830841
O     41.930498    43.180746     9.531825
O      3.685998    26.485498     1.799256
O     19.798920    42.033627    14.416499
O     17.886661    12.027152    33.743250
O      3.938319     5.993294    37.490930
O     10.660738    34.096673    46.135542
O      4.374996     9.107198    19.491093
O     23.558061    44.201023    18.783432
O     14.363862    42.118209     1.553532
Si    36.639267     3.860279    22.772341
O     37.887415    24.974269     1.474313
Si    31.985213     0.631695    21.440509
Ca     5.929014    19.425073    44.632877
Si     2.692655    16.082279    37.085993
O     11.654003    14.269768    21.765138
O     41.009624    13.530159    37.489594
Si    10.508910    37.065926    39.717497
O     42.940261    26.238795     1.779625
Na     9.386349    34.519951    19.872850
Si    20.329872    22.237556    46.383692
O     21.264939    36.924138    20.121731
Na    24.117051    11.447683    17.728753
O     34.036218    38.940361    36.655743
O     27.083974     1.597199     6.144416
Si     2.048549     7.215582    31.943818
O      8.251819    11.427865    22.705664
Ca    29.371193     5.478116    31.007868
Ca    22.415725     3.865268     9.516169
Na    46.663225    21.534780    41.832197
O     15.235696    34.787592    29.711973
Ca     9.310292    17.834606    10.490087
O     20.326862    14.458618    23.152383
O     14.602132    41.265366     8.201357
Ca    32.353870    26.947759    46.242709
Na     9.041159    45.188734     0.160354
O     16.944415    35.491138    12.474288
O     44.014452    24.467685    26.061164
O     32.648170    20.937877    11.693553
Si    41.726444     6.685274    40.988935
Si    29.782648    19.098738    35.061359
O     44.700551     6.495750     9.228117
Na    31.862275    24.988997     6.857593
O     26.997966    16.618876    12.899284
O     30.876269    37.213779    18.197054
Na    37.546682     6.836532    38.042802
Na    37.892567    33.653647    30.666958
Ca    14.721687     4.550989    19.842074
Na    13.215104    46.279003    22.984828
Na    43.395692    25.254073     6.642412
O      2.955777    42.473599     6.013813
O      0.761558    21.692747    35.801618
Si    25.580752    26.208804    23.614148
O     42.659423     0.491974    44.458544
O     17.883665    26.086029    44.009499
O     10.037345    29.481398    14.979396
O     19.245265    30.283442    16.395789
O     13.524278     4.568204     0.290820
O     34.739765    10.114421    41.877711
Na     1.782319    19.900667    26.842916
O     28.889558     3.170776    29.225817
Si    14.206192    40.854333     1.108722
O      2.666962    14.387701    36.768649
P     35.082734     6.103193    37.712136
O     12.921481    41.834183    20.760499
O      5.896832    21.315504    28.677910
O     34.290631    13.409526    38.613959
Ca    27.857656    39.876597    29.736940
O     37.348220     8.637438    41.268817
Na    39.131616    21.621295    40.488828
Na     8.394526    17.144022    23.554719
Si    29.892068    26.850370     6.880235
Na    39.385421    46.441404    17.436394
O     10.508879    46.656068     9.948803
Na     4.389495    36.493458    11.574383
O     11.595391    44.091974    37.026754
O     46.550194    39.002779    42.035521
O      9.279267    25.172105     3.422399
Si    33.302900    26.227683    23.090890
O     13.922747    10.489320    13.594781
Si    45.414457    46.019655    13.569336
Ca    37.457447    10.390672    39.872023
Si    40.798618    27.646424    16.795919
Na     7.682004    12.948859    38.989673
Na    12.701921    24.316951    39.168068
Na    39.871398    34.838012    10.014981
Si    17.573967    33.612786    41.579169
Na    14.643384     2.230162    30.912908
Na    45.311421    25.962137    40.966670
Ca    25.874330     7.499260    37.781192
Ca    43.740651     4.438942    25.035655
O     12.101693    39.864709    30.880014
Na    28.286603     3.060398     4.378508
O      1.475141    17.008245     9.069479
P      1.466360    18.303152     9.363460
Na    29.135254    36.377185    11.495634
O     12.295231     3.214138    22.349810
Si    24.521997     4.760997    39.032804
O     39.615767    14.617784    24.411995
O     31.666882    15.924846    34.011643
O     31.390672    32.282114    45.232976
O      2.486485    29.088800    38.904452
Si    30.496936    38.480205     7.823063
Si     4.772632    30.822800    44.604563
Si     2.344985    10.937067    29.151235
O     13.250525    15.573157     9.408896
O     44.581004    20.297129    25.276569
O     21.408443    45.022283    27.551232
O     22.791866    13.971611    20.757536
Na     6.189741    39.047788    39.115198
O     37.903085    46.406064    38.263139
O     28.368240    11.512869    19.865636
O     27.999386    39.190476     4.191734
O     24.276607    25.312567    29.055492
O      0.437254    43.783933    39.084284
O     22.903459    26.658720    40.935855
O     17.291836     7.486009    10.274067
Na    12.447944    37.335330    38.187263
Na    17.403583    16.065655     9.971956
O      1.889412    36.594129    32.100428
O     30.111352    19.085912    17.595785
O      3.499322    17.420244    23.514005
O     31.435414    32.212447    34.101769
O     35.560012    16.482663    40.391245
O      5.687923    32.430282    15.940380
O      7.018740    42.564324    19.280834
Na    10.062755    23.504897    41.477702
O     45.804582    27.753563    40.287729
O      5.807346    11.927253    41.094738
O     31.985815    15.607306    43.021698
O     32.634440    18.886251    29.049567
O     16.784244    44.688107    40.107972
Si     7.317991    24.897560    42.795220
O     12.788832    11.998039    26.530541
Si     4.984465    18.815265    43.084314
O      2.201892    14.156551    11.357210
Si    32.773996    44.524311    28.560995
O     16.827880    38.538189    24.251116
O     46.071315    29.413280    18.571584
O      7.833059    10.876965     5.685559
Na     8.177646    40.833878    31.324020
O     33.136290    38.248337    41.571458
Ca    21.976945    19.558730    45.003688
Ca    43.201067    28.206425    22.832963
O      5.466571     0.397297    23.129076
O      1.161754    18.416586    42.630358
Na    12.329878    13.727890    37.263942
Si    11.067612     2.221499     7.169716
O      6.221763    35.733327    11.611423
O     42.679865     0.418325    30.613304
O     33.456643    35.665913    25.914812
Si    46.524989    44.877078     1.963312
Ca    10.058291    35.958431    18.523619
Si     1.001919    45.030496    22.750887
O     15.181993     2.181105    17.996960
O     19.277472     3.992388    31.504843
O      9.262962     8.875836    38.605565
O     29.416826    44.484354    13.139480
Si    13.995102    27.584934    18.610379
Ca    23.141367     4.103152    42.691305
Na    14.471145    22.442880     2.578112
Na     5.970465    35.919136    20.654480
O     41.552813    11.493042     1.834639
O     11.058015    11.559662     1.964587
O     38.987918     9.282790    18.540088
O     41.534341    24.334640    30.480766
Na    23.212145    22.856601    46.493288
Si     4.171875    30.843633    19.518950
P     39.427955    41.835281    20.482828
O     10.447365    25.374525    36.949687
O     40.724694    28.287600    10.353769
O     20.267261    43.779904    28.587618
Na    37.236369     5.143002    26.808814
O     38.163534    11.193011    15.729936
O     18.893587     8.966558     8.590567
Na    46.075804    30.930251    25.624112
Si     1.155049    18.559143    40.880988
O     20.063581    39.538317    10.330130
O     15.827435    15.742182     7.525385
Na    22.015134    22.590025    41.421917
Na     7.542399     1.408815    26.095795
O     14.092323    18.141621    23.709814
O      6.746735    34.425639    40.013987
O     10.923232    35.445182     3.576096
Na    29.752471    40.543911     2.895354
Si    39.881600    16.276216    39.907954
O      7.249803    34.003770    19.814873
Na    35.763763     3.211800     1.733656
Ca    45.204362    36.739965    16.606381
O      9.061929     7.151396    22.318692
Ca    42.751419    32.791913     3.672203
O     10.016391    16.990548    18.760832
O      5.939232    33.171417     3.147149
Ca     4.730510    28.285074     0.581954
O     40.893388    25.090881    10.068419
Na    29.176384    13.629967    20.323683
O     44.971494    34.420721    23.705242
O     44.210350     4.184411    31.467816
O     31.018756    28.669685    13.064586
O     42.594439     6.139463    40.739078
O      9.987622    22.470120    37.667563
P     11.484267     1.990000    10.456540
Na    36.706183    38.563278    28.033009
O     26.631972    32.732557    31.685198
O     30.517839    35.885445    36.895264
O     41.577382    23.945621     2.801229
Si     6.512207    13.310797    31.681939
Na    15.318191    27.987086    10.451395
O     13.867196    12.541007    30.003275
O     26.870013    17.415394    28.658600
O     41.190691    24.465683    40.273896
O     19.287778     5.667512    28.347897
O     18.572285    38.346965    35.928555
O     29.403986     9.155065    18.015288
O     30.137166    22.809915    12.133472
O     18.593062    19.648379     5.840560
O     12.985849    15.463837    29.855884
O     19.271973    37.190405     9.131329
Na    31.878555     8.422889    15.446898
Na    20.886946     8.028045    17.415350
O     44.350797    45.833495    25.715944
P     40.014553    26.629935    10.026382
O     40.391001    41.799668    11.252545
Si    29.611317    16.258018    30.926754
Si     3.202746     2.506222     0.010136
O      9.488065    41.732284     0.799151
O     25.726227    45.887956     0.911329
O     24.398694    19.611183    25.473628
O     20.927816    36.119877    46.540373
Na     0.399316    30.884397    20.316257
O     43.239132    34.689654    11.626547
O     37.001015    20.100576    46.358745
O     26.894286     9.153935    15.460662
Ca    31.200109    25.645800    37.438170
Ca    33.681421    13.219342    29.889126
O     25.263559    34.242315    29.861662
O     39.214921    17.570180     5.509293
Na    36.328627    17.166435    46.587224
O     18.503201     1.430132    18.702608
O     21.695457    19.329416    25.019099
P     30.415067    12.777346     2.961108
O     35.792259    32.949188    34.385129
O     21.998165    23.565550    37.427753
O     23.270543    11.296155    15.327664
O     35.092413    29.250762    30.689404
Si    30.496128    31.469740    20.284372
O     27.671321    21.522995     4.536343
O     31.801520    23.166734    27.451839
Na    27.007684    33.405372    43.544277
O     34.523086    20.802464    28.009209
O     36.498848    33.306186    38.012334
Na    13.689306     9.583223     7.199237
Ca    32.952058    18.130238    40.262499
O     14.676291    26.968419    30.102965
Ca    21.009505    12.595042    23.612745
Si     2.525506    43.385570     4.580738
Ca    45.636682     5.613332    35.689586
O     40.530701    35.646776     0.761279
Si    17.614979    21.659119     8.651427
O     31.608378    22.275721    37.968886
Si    11.437243    39.465565    29.893349
Ca    22.323882    25.887599    38.271866
O     26.938574    11.243511    30.789614
Si    10.991113    13.670048    23.022060
Si     0.291539    36.836267    24.468440
Ca    38.942894    23.560002     2.878735
O     22.797052    18.269467    11.478873
Na    35.145720     8.396451    45.604646
O     16.088553     8.887618    30.117783
O     41.718213    35.680196    37.309078
Si    11.697114    11.420380     7.550262
Si    45.204746    23.463272     6.687955
Si    42.013471    35.660969    12.651976
Ca     9.605840    37.492924    16.078310
O     29.686957    40.353144     5.441886
O     23.453656    44.824285    25.421593
O     20.727788    10.536159    26.916036
O     14.443495    42.990089    14.182793
Si    33.327908    20.876958    16.134207
O      5.751349    44.364175     8.629270
Na    20.078538    27.988269    38.913617
O     42.783478    21.672915    34.858441
O     23.452564    33.724981    42.286746
Na     2.420904    16.753945    42.997104
Na    32.974675     5.345865    35.416600
O     25.360084    36.000305    15.822801
Na    41.353836     6.201207    23.872248
Na    14.600523    22.934362    43.940058
O     19.225530     9.153952    39.918202
Si    34.231527    36.583656    26.571124
O     25.949471    23.122470     2.665610
O     26.985789    18.929212    19.209477
Si    19.233533     6.444805    26.869813
Si    24.209224    22.944021    24.774357
Si    13.566988    26.154933    29.131296
Si    40.732487     5.195862    34.003743
Na     0.664690    26.875979    22.191792
O     30.031502    13.018545     1.580473
Si     9.612024    35.196625     5.393858
O     35.898486     5.090869    44.624920
O     24.794107    22.299919    33.047672
Na    15.823070     6.399103     8.020472
P     23.361972    19.476238    11.918936
Si    10.475860    26.176491     3.073115
O     28.096470     8.129569     5.941669
P     35.715536    37.839584    14.329788
Ca    25.353315     3.208858    20.983600
Si     1.414263    18.513383    44.183559
O     16.123760    13.512634     6.709205
Si    24.033025    40.116126    21.662620
O     41.276944    15.913269    26.595388
O     11.089545    18.871658    16.906660
O      9.778886    37.891622    18.029802
O     14.247892    24.677168     6.012342
O     26.576742    15.630864     0.668216
O      3.748169    17.312102    36.810660
Na     3.293050    19.673652    20.802558
O     12.134412     3.327173    10.991741
Na    34.682515    36.215960    17.939818
Si    43.338438     1.160218    25.770511
Ca    26.695666    13.290967    27.373440
O      0.164470    31.137530    27.827717
Si     7.696519     7.772592    39.024890
Na     3.102349     7.180477    29.142707
O      5.492487    22.505722    12.157567
O     31.230123     6.314418    11.450851
Si    41.833280    35.093079    46.325374
O      6.184714    41.374604    39.672767
O     44.937079    38.370579    22.749566
O     24.889354    23.865771    26.206588
Na     7.119000    34.910710    45.220891
Si    38.505798    14.433865     6.787797
O     10.086197    24.488514    39.432009
Na     6.131866     9.638589    23.655972
Si    18.264096    19.645683     0.047500
O      5.586004    17.044619    43.090309
Si    29.700657    45.890776    29.070376
O     25.530194     6.131309    34.738957
Si    34.746088    27.492895    30.801723
O     32.534075    40.430161     2.989970
O      1.613311    10.927145    27.216111
O     31.689796    28.768415     9.787241
O     24.522440    19.687644    30.719093
O     38.866055    25.722042    38.605627
O      6.607082     9.326878    21.611046
Na    11.573789    18.117461    14.371352
O     42.931122    38.154673    40.974806
O     45.132647    33.582844    41.124246
O     24.352582    46.527750    46.005766
O     43.511196     6.640424     6.593309
Ca    42.705602    34.863047    24.598689
Si     2.272686     7.820095     2.626421
Ca    45.746588    36.943845    21.438350
Si    31.229932    30.692962    31.315167
O      1.752093     1.506167     0.064830
O     43.269770    43.138077    36.977450
Na    38.064273    27.053429    46.752727
P     26.513778     7.299629    34.572043
O     21.370278    17.205600    18.651261
O     23.255227    12.550086    42.191228
Na     4.444921     8.317885    36.724001
O     25.565520     9.569511     7.935241
Si     8.064806    41.727951    21.961359
O     28.298199    45.491685     1.883190
Si    13.980109    44.706170    42.498343
Ca    18.213723    22.679746    23.530689
Si    37.266784    36.402657    29.981586
Na    17.509965    28.293402    41.875871
O     22.955852    43.499547     1.023300
Na    29.785785    28.925076     6.974292
P     23.971123    16.281697    19.807872
O     17.670688    41.744463     0.228015
O     25.654498    28.957573    12.258925
Si    22.194129     5.467407     6.218291
O     27.436974    23.606839    19.220085
O     42.631062    38.734090     0.080131
O      0.314108    12.304705    12.974674
O     25.312196     7.708154    35.712420
Na    44.249702    36.458353    46.644983
Si     9.922069    27.422187     9.152073
Si     8.755227    21.559270    13.614285
Si    21.300796    11.182040    30.158020
Na    46.107401    13.950087     7.142940
O     34.030445    39.748577    23.324424
O     37.117769    13.277950     6.986058
O      5.087601    12.828291    13.137046
O     38.670109    19.958642    13.049264
O     23.352661    41.856636    36.663993
Na    45.810867     3.997129    37.831768
Na    17.663119     0.572576     5.199862
Na     6.263280     2.547488    41.334741
O     10.431504    18.178179    20.253572
Si     4.923453    28.891021    11.144534
Si     6.345462    17.058820     3.224733
O     24.069768    20.134646    46.035651
O      3.536805     9.045576     1.278114
O      6.570826     3.576864    20.256363
O     17.941115    22.194013    13.686990
O     27.583403     6.664373     3.915144
Na    28.018609    14.367228    33.953080
Ca    20.590125    20.414052    26.755427
Si    34.750845    29.257631    39.787687
O     40.872097    32.502722     6.072664
O      2.840750    46.130756    14.154346
Si    45.673835    14.859422    21.547847
O     14.858722    24.093001    25.933022
O     10.922262    32.582064    28.792087
O     46.271994    22.057789    22.908720
Na     8.004493    38.577358    26.398780
O     41.525567     5.749660    42.527860
O     15.295104     4.786069     2.836029
Si    34.698619     0.993719    45.919063
O      4.784459    29.538616    18.436912
Ca    36.576702    20.357377    31.896105
O     26.815788    45.991883    15.911524
O     16.848422    12.701722    29.771744
Na    45.749187     0.670088    26.223240
O     26.232846    31.211374    29.548092
O     15.291975    10.766875     1.638364
Na    23.331581     1.284611    16.533608
O     33.232839     9.488436     3.627504
Si    20.176907    20.160194    11.942974
O     46.314177    26.912896    10.773110
O     28.107608     5.557885     5.482635
Ca    15.098581    37.419506    38.786782
O     46.473369    33.046352    21.194086
Na    30.350431    35.584992    21.462106
Si     7.764042    11.893123     7.474705
Si    24.832545    45.367253    45.172233
Si    18.502599    34.576468    12.062888
O     18.604681     3.525172    16.876275
O     25.009442    24.500897    23.945973
O     37.169000    24.723389    45.512455
Si    40.000516    11.180048     2.482828
O     22.115432    21.168626    36.453902
O     25.805308    15.943290    26.431437
O      7.979064    30.311906    15.747711
Ca    43.604093    25.507247    44.592679
O     32.864589     4.458088     0.094240
Ca     5.668381    45.646523    21.743657
O     18.093639    12.525162    23.713691
O     43.425373    32.629613    43.207708
Si    39.452298    42.232246    45.854625
O     32.429668    14.396918    40.635586
Ca    21.747369    17.056677    23.966883
O     24.756513    28.580419    14.263511
O     36.671935    46.039177     4.713142
Si    10.821936     1.718861    25.902976
O     44.920445    31.315880    22.977660
O     41.658580    23.409172    36.952279
Na    10.427237    43.979599    27.968577
Na    20.630455     2.802575    33.740206
Ca     6.433787    15.266906    26.629313
O     19.965565    26.588698     6.657583
Na    21.388319    30.309292    13.584551
O     44.474585    46.635290    42.520216
Na    15.563703    44.368603    31.506060
O     40.665431    37.597575    10.497444
O      5.741814    20.376081    10.040928
O     34.548788    25.285419    34.895761
Na    34.606700    15.055883     1.782978
Na     2.763673    28.219980    17.533555
Si    18.046988    29.890963    12.519276
O     30.168459     5.870728    42.314066
Ca    41.003604    23.922767    46.505381
O     39.674977    23.992187     5.797420
P      6.976895     4.252229    31.723700
O     46.486402    18.130081    39.799319
O     35.613166     6.500210     0.309842
O     18.681329    21.465592     8.422595
Na     2.920821    36.509700    22.475571
Si    37.760761    46.707745    13.859820
O      7.871343    37.858932    11.994416
Na    21.589654    28.912639    17.850668
O      7.400873    22.384125     0.826403
O     26.823786    22.633086    30.998906
O     14.626077    20.519681    12.354131
Na     7.123642     6.382900    28.209364
O     29.389786    29.977755    20.178024
O      1.074508    32.877151    40.333416
O     44.876423     4.363095     5.949669
O     36.245499    26.757789    31.345054
Na    16.377869    20.653475    39.285604
O     44.404744     1.631953    34.055687
O     37.715602    15.440545    32.300091
Ca    45.578021    36.467011     2.648956
O     16.097985    32.563277     1.921206
O      7.818873    44.698845     8.531662
Si    15.794579    28.303493    30.878443
O      5.237140    23.008703     9.467925
O      0.494689     7.174083    30.930425
O     21.560988     7.024353     6.733656
O     10.870608    44.410889    10.407251
Na    28.677752    15.700742     2.302458
O     44.859545    22.341411     7.881602
O     41.589226    10.629732    27.570514
O      2.525898    16.086438    34.365927
Na    42.252336    44.258827    38.079385
O     25.354320    37.971783     1.502173
O     41.120212    23.876631    34.049019
O     35.188267     3.161033    21.956074
Ca    23.486253    24.409686    41.094848
O      7.269031    14.407475    30.324556
O     27.349616    28.500098     4.369650
Na    21.660049     9.439701    44.744978
Si    21.373343    18.062359    16.888087
O     18.788078    11.556694    38.446160
Na    18.135896    43.320371    29.078115
O     21.010844     3.942306     6.540102
O     18.043154    35.072843    42.485115
O     41.021132     5.595540    32.663910
Na    22.604385    20.217544    30.582739
O     23.289689    17.075680    25.533963
O     25.481897     6.955972    15.104527
P      5.004458    22.126186    28.474390
Na     2.815378    32.126931    43.275284
Si    37.479113    12.649326    14.897855
O     24.790704    29.280429     0.473960
O      2.823073    19.852347    14.196426
Na    42.155876    27.338490     8.958061
O     31.288325    32.508859    30.916768
Ca    17.656623    38.746238     0.755169
O     17.605333    28.009991    30.846869
Na    32.763085    18.169950    11.117217
Na    38.837105    16.502793    26.103205
O     31.679460    18.963765    38.416998
O     23.880484     5.307317     7.222696
O      1.614623    15.893536    38.689628
Na    19.865046     9.529198    42.516320
O     28.285471    30.029827    18.599360
O     29.890998    20.843150    35.144450
O     33.613479    13.201107    20.152407
O     45.175216    18.248737    33.612242
Si    21.446677    30.785857    25.964662
O     31.631381    14.548224    38.038216
O     17.586337    22.188205    40.207727
O      0.362990    18.189416    33.300669
O      9.287557     0.428919    44.841757
O      7.144737    10.127528    17.137983
O      2.878896    42.511181    34.093997
Si    23.227453     5.079093    11.961052
Si    38.268137    18.758397    46.497250
O     10.345478    36.844692    26.980674
O     17.875774    37.143438     6.835369
O     12.937196     6.739111    25.108591
Na    31.230712    31.076148     3.730313
O     41.524729    42.258968    22.755281
O      7.356478    16.668281     4.288312
O      6.453464    42.055098    21.220863
O     42.738492    36.240867    45.122981
Na     3.492215    38.653747     5.824614
Na    43.707289    14.260653    32.788015
O     35.904852    39.763161    34.855721
Na    39.091495     5.595472    10.680688
Na     6.315605    12.214493    17.818652
Ca    19.451590    10.408648     3.636402
Na    30.225006    31.424654    41.951855
O      7.223254    29.593139     6.710733
O     10.319627    19.647086     9.969523
Na    10.218338    11.889090    31.647547
O      7.174626    41.142238     2.543202
Na    28.835364     8.111467    27.812734
O      2.697777    28.762419     1.088911
O     38.454253    35.073998    20.365296
Ca    31.591711    28.960705    36.555892
O     32.894757    43.573070    37.197519
O     30.246263    31.785353     0.771599
Si     2.300367    28.553711    37.700022
Si     6.799740    40.434830    38.372408
O     41.127311    28.792724    25.706945
Si    26.997679    30.310606     3.650742
O     25.975076    31.081589    23.627265
Na     8.945630     3.211321    23.406837
O      9.408216    34.035772    25.771263
Ca    38.647155     6.156665    40.853630
O     24.114421     8.135064     6.152645
O      2.324341    26.413685     6.061871
O     43.107822    34.120763     0.452809
O     43.135538    20.786483    10.211799
O     11.533388    15.721479     8.325810
Si    13.732870    31.091758    39.191037
Si    26.266406    25.782148    39.066321
Na    34.277584     6.927451     7.289709
Si     3.641968    21.098024    19.451467
Na    18.080238    44.722376    38.115557
O     37.212098    24.555075    28.484464
O      3.635897    26.798140     8.298275
O     22.650341    17.705994    43.711417
O      9.760547    40.315491    30.051836
Si    34.324877     1.516395    26.576399
O     16.174923    18.317945    11.940555
O     16.457534     8.439943     7.455616
O     31.348442    27.019121     7.972940
O     39.861582    11.703366     4.017687
Na    10.978479     8.715470    14.353069
Na    21.108417    23.671612    31.651537
Si    26.423392    18.721778    20.634966
Na    16.722835     3.137410     9.157285
O     42.171546    26.743144    31.492184
O     24.911194    10.302072     0.380928
O      0.706741     4.537308    35.392051
O     10.172762    25.591443     8.495837
O     33.283825     5.245423    22.858456
Na    28.711603    32.084550    39.753141
Si    26.547956    32.866705    30.429268
O     45.158758    38.792072     1.947222
Si    16.830188     8.226534    21.899681
O      3.833727    29.322006    36.384039
Na    21.922198    38.374084     8.802928
Na     4.286571    43.669430     2.731262
O     19.589451     1.749025    29.960506
Si    16.785867     4.050406     5.634985
Na    21.153570    46.133360    18.868964
Si    18.375844    43.111824    14.925836
Si    43.035483    27.026194     0.035965
Ca     6.702591     4.212182    24.863808
P     36.267394     4.187874    30.885446
O     26.234321    22.432875    44.168537
Ca    33.143907     2.689868    23.105611
O      6.449763    42.104529    14.119158
O     32.934794    27.276118    24.654806
Na    36.848078     4.883811    11.960835
O      7.019811    18.504450     3.347738
O     16.655986     7.510647     4.252972
O     18.580505     5.271750    25.760483
Na    45.061158    18.132512    42.466277
O     39.363807    42.724000    18.993964
Si    44.903502     8.385681     9.400911
O      3.362871    37.723796    44.248081
O     36.192111    38.689304    24.794880
Na    37.023042     4.793806    35.917246
O     10.970652    39.814749     1.441765
Na    40.755262    29.732807    32.430633
O     40.366945    40.952332    24.665150
O     42.273839    39.772705     2.444720
Ca    23.490973    25.852304    31.694743
O      3.190984    34.536497     2.508781
O     15.109836    34.495401    36.217896
O     39.899138    38.864621    16.606639
O     16.933156    32.481232     7.323863
Si    40.285419     6.183863    28.653016
O      7.859199    45.544594     7.016200
Ca    44.414694    29.556185     3.245154
O     22.331783     3.661947    35.376703
Ca     2.397030    23.147527    26.829082
Ca     7.447097    15.830788    34.410002
O     43.999239     2.310781    27.248892
Ca    17.636016     0.487864     1.248791
O     16.041712    32.400033    45.949403
O     13.048046     6.269485    12.754949
Si     5.825882    38.862789     6.929285
O     36.464076     0.998633    46.612218
O     37.726831    31.090684    35.424421
O     44.132886    35.097461    17.904287
O     18.743887    19.125878    31.255338
Na    26.200204    28.431552    45.632560
O     14.931189     8.027766     6.466313
O     10.070131    22.516252    12.465544
O     22.919551    10.892511     1.360504
O     36.282976    19.284089    14.175135
Ca    32.288442    31.497309    14.288362
Si    21.800478    17.631192    10.075005
Na    19.295385    42.157882    18.387593
O      5.475646    10.771620    11.225188
O     25.755742    10.816199    43.159897
O     17.754055     5.578738    41.256302
Si    44.502221     5.645149    39.945773
Si     3.892718     0.738190    22.145396
O     21.778899    42.803088    26.125170
Si     4.860758    42.194873    40.544856
O     18.262179     2.793418    41.470180
Ca     9.623346    28.246725    24.744365
Si     0.546933    10.733946     6.169166
O     22.431607     6.246828    10.582809
O     24.828740     9.357393    44.478942
O     37.661097     4.527420     0.637805
O     27.446246    14.872452    28.530721
O     27.946099    18.846383    34.583165
Si     4.395297     7.210544    25.033720
O     22.718846    33.348865     9.324770
O     18.255818    10.547223    36.448963
O     40.233132    13.763917     7.604716
O     38.703861    45.266437    33.347972
Ca    13.193939    40.709220    26.751982
O     36.965053     3.475039    10.004609
Na    38.099546    32.773246    16.932050
Si     5.248148    40.393835     0.052455
O      1.243108    12.415534     6.655957
O      6.367000     8.410862    37.850669
O      8.248960    20.048345    30.490770
O     15.237309    44.887902    41.970468
O     18.972296    39.268317    17.471647
O     31.784574    45.954268    12.699405
O     29.821368    31.272065    45.115303
Na     3.123222    12.381721    18.479992
O      3.612436    42.787821    39.717348
O     39.531200     7.706792    10.867063
O     23.728587    45.910104    31.498832
O     42.954677    31.293187     5.016219
Si    35.268460    23.592586    35.225976
Si    26.549780    46.440853     1.679484
O     37.488907     4.575963    30.672270
Si    34.481547    35.224138    16.272801
O      7.927690    40.322112    36.903034
Na    21.750584    38.556394     3.477204
Na    38.229267    31.978138    21.087132
Na     1.292513    42.127940    38.571736
O      0.049292    38.114782    30.257617
O      4.445228     8.966026    24.284001
Ca    40.166725    40.773494    26.712273
Si    15.146380    42.389687    24.682024
O     27.046616     4.922116    30.353211
Na     3.097512    45.140327    34.164752
Si    18.806108    25.513861    33.872966
Si    17.884734    18.662593     6.011019
O     16.354573    39.072372    39.392993
Ca    28.947167     7.113608    19.360400
O     34.120834     2.531843    45.290121
Si    36.062580    14.548183    32.193620
Na     2.518353    11.270339    22.728884
O     39.106664    27.273259    25.000978
O     44.689062     8.219168    13.668274
O     41.377981    34.155884    15.768782
Si    46.105704    26.121631    39.261678
O      2.580414    36.286610    10.410614
Si    43.582781    37.611274    21.647421
O     22.765941     8.579475    23.035284
Si    39.020303    45.315905    39.382212
Si    46.041998    19.702907    24.185303
Na    40.505459    37.950392    46.234187
O     36.709497     4.871757    24.148350
O      7.575128     8.368741    25.562383
O      0.176443    43.280654    22.747967
Ca     7.122567    33.662203     4.885511
O      1.156979     3.549595    24.048901
O     28.224249    34.770208     4.783634
O     24.189453    44.640974    39.861360
O     28.985082    17.085496    31.882543
O     43.439559    22.023145    25.493611
O     18.933631    45.500186    34.428911
Si    14.766130    41.761616    27.889752
O      3.800682    40.914761    15.022354
O     40.386431    14.301610    39.264990
O     17.968460    40.552573    37.672858
Ca    26.433583    42.424681    46.682249
Si    22.187944    35.266978    42.144803
O     41.029671    33.775487    45.394942
Na    21.574023    28.290842    11.491211
O     44.803497    27.165597    31.100519
O     35.972765    12.693374    39.499391
Na    17.340961     8.002511    40.859912
O     24.717480    22.527772    17.062672
O     25.145334    33.780197    25.997656
O      3.268398    21.614840    28.628889
O     13.706376     4.476046    43.617265
O     41.080204    16.223000     0.232460
Na    19.984083     6.862030    35.709829
Na    36.981926    39.497734    19.581079
O     41.782188     4.122441    34.989220
O      8.754101     5.564316    46.572916
O     33.193092    33.450964    32.826684
O     14.437576    18.810696    33.307241
O      0.777416    28.491978    36.634803
Na    31.817658    45.902520    25.319323
O     37.044194    35.492343    39.637827
O     45.820126    22.119436    38.168992
Ca    45.788449    41.758616     5.357426
Si    11.076139    11.817712    26.987448
Ca     6.176268    22.823735    41.672890
O     14.295686     3.985965    25.299983
O     36.824881    33.309386    22.061584
Si     0.409578     0.733557    46.452283
Si     2.147176    18.824353    15.383021
O     43.053224    40.202218    37.014532
O     40.930478    14.369281    31.895180
O     44.302110    12.023345     2.992258
Na    31.320900     5.060097    20.450254
Na     7.205280     0.375777     9.885177
O     18.985340    18.214557    35.288271
O     21.653366    12.733208    13.751252
Si    28.199411    19.342589    17.492773
O     28.010547    35.221732     7.696668
O     15.872057    18.765639    30.954713
O     17.344419     1.950311     7.330985
O     17.230666    29.733090    10.823574
O     34.125125     8.996512    14.465648
O     34.236972     7.525593    38.257063
Ca    40.559954    37.818568     8.396079
Ca    11.858552     6.791996    26.872350
O     44.688515     1.457428    36.556090
Si    40.154702    42.486748     9.664397
O     35.959966     1.217835     6.754801
O     23.821736     8.329847    38.707071
Si    33.925960    26.477670    35.439260
Na    16.003814     4.784523    41.543825
Si     8.179314     4.234349     8.558320
Ca     4.013709    31.885832    11.954226
O     26.670972    30.840098     2.544135
Ca     3.862194    25.997818    27.704480
O     21.311607    36.397023     3.063287
O     22.651655     5.996175     4.528335
Ca     6.441664    12.016563     1.623615
Si     4.351687    34.015276     3.894809
Ca    26.049023    14.495389    24.460643
O     43.328895    14.777241    25.747940
Na     4.403575    25.167558     9.016872
O     44.579578    35.488570    43.643446
Na     3.874471     8.921588    12.512237
Na    34.682665    45.109836    26.801396
Ca    18.086553    28.557309    32.909515
O     20.572564    38.539293    32.322946
Na    31.320342    34.156326    38.126075
Na    28.824039    31.262468    31.789512
Si    15.641335    23.237657    24.912024
Na    14.158377    27.759096    14.733529
O     28.250695    15.626266    29.828483
O     32.216664    43.599442    12.332575
Na    34.589848    40.307700    25.606575
O     30.308173    30.059039    29.814147
O     29.367808    15.328843    35.694967
O     34.438875    43.270358    15.469028
Si    15.828367    39.505751    22.607113
Si    43.314510    43.782250    18.525931
O     17.944770    33.751077    10.351084
Na    17.895110    21.886261     1.272879
Ca    12.196333    37.884324    35.033914
O     34.305370    37.494109    22.326563
O     33.493084     7.984130    32.994028
O     17.628262     1.322656    34.120718
O     26.820735    24.291799     5.198274
O     30.982931    16.440328     8.792318
O     34.244460     0.392180    27.819639
Si    19.045842    20.103038    29.636774
Na     9.011184    14.193841    21.123400
Si    12.391436    45.121968    36.311292
O     12.144065    13.459602    11.811793
Si    31.035772    44.746369    13.297553
O     17.133902    11.370217     3.367250
O      6.755670    44.353107    16.944358
O     16.091779     5.313295     5.416340
O     19.305119    34.645228    26.821095
Na    22.327022    29.770974    40.537916
Ca    30.569482    46.186348    31.491301
O     14.370175    29.490014    18.422248
O     10.139473    13.690001    24.349010
O     15.381093    15.083281    22.465104
Si    41.381470    38.129703    16.637801
Si    27.333502    16.117069    27.695172
O     19.825640     4.613408    43.016355
O     27.439398    35.832806    36.433267
O     16.705051    34.267653    40.134249
Si    33.749138    44.866081    36.586845
Na    42.790236    16.984469     8.056163
O     22.173821    23.596257    34.429999
O      2.204294     8.004237    42.503526
O      6.695321    28.192861    11.413746
O     33.827960    39.561075     0.657864
O     38.648729    44.284791    16.743978
Ca    37.428654    23.006950     7.422120
Na    34.752433     3.211270    11.757879
Na    24.268406    40.842227    15.754554
O      0.705828    35.056483    12.730647
Na    33.620742    22.922382     1.720076
O     27.786089    46.741493    18.530905
O     20.358548     7.192741    14.618235
Na     0.436207    44.860659    14.446340
Na    41.514181     2.129701    11.005739
Si    22.658841    15.206339    25.195982
Si    27.693589    22.283316    44.118090
Si     2.319288    43.755623    38.969952
O      3.983988    17.557635    26.401984
Na    14.667310     3.421601    23.267657
Na    43.271122    10.238629     1.417759
O     40.010663    17.398875    24.555642
O      4.434389    29.887275    46.267231
O     16.374817    29.955204    24.272513
Na    39.441552    42.044112    38.719347
O     16.326153    23.049978    35.157540
Ca     8.319069    17.636629     1.800894
O     37.730849    38.064254    30.609710
Na    27.898799    37.489753     6.038005
Si     6.428785    36.215668     5.494991
O     16.836007    41.898449    14.380907
Si    33.904022    33.152305    34.573495
Ca    44.552487    32.685600     5.709348
Na     3.242711    21.847554    14.285244
O      1.216207    25.570584    39.639004
O      1.604374     5.836208    38.610869
P      4.537345    36.696162    44.126412
O     27.725785    12.403344    24.161231
Ca    22.097821     8.353061     4.279271
Na    11.699250    12.783777     0.263732
O     39.538758     2.380338     1.145179
Si     3.299829     5.992128    38.578328
Na    31.519416    20.464310    15.901671
O     13.271898     7.001247    44.317384
O     22.542673    17.141727    15.740251
Na    33.298878     2.670238     2.903544
O     35.909662     1.872902     3.812768
O     20.511810    21.123317    29.690717
Si    21.867923    12.154305     2.098194
O     46.108178    13.079413    21.201582
O     31.939598     1.096749     1.162555
Ca    32.025317    30.489385    45.793385
Na    17.830171    42.120800     2.515083
Na    19.701412    41.139301     9.228307
Si    26.050451    36.660186    31.067628
O      8.450685    42.559193    23.905977
Ca    14.123968    18.358958     3.925673
O      6.728099    11.062202     3.421193
Si    39.626591    29.085518    25.483035
O      9.779843    39.172071    35.201802
Si    18.962882    22.499106    40.413757
O     43.794288    14.937749    28.524229
O     43.805803    24.508542    35.460990
Si     1.045876    15.485781     9.442299
Na     3.940428    40.461168    12.506783
O     44.959539    14.867943    23.225581
Si    25.306653    38.344875     4.267875
O     33.497947     5.304325    37.904938
Si    25.502421    25.528242    41.931501
O     40.109589     7.514189    41.449407
O     23.561488    46.653173    34.667943
O     38.905156    26.261087    11.370548
O     31.348352    44.392265    18.834268
O     17.078661    15.304738    28.125308
Ca    33.552312     9.477357    20.607327
P     16.578407    10.596201     1.894886
O     33.353862    19.262360    16.335865
Si    35.776329    29.683562    25.888978
O     10.599382    13.261312    36.081574
O     16.891600     8.603913    23.576726
O     22.251888    14.886118    38.163474
Na    24.061706    33.325063    31.926985
O     13.131860     1.483222    19.787220
O     20.119595    24.807984    35.610445
O     20.720882    31.254501    10.700976
Si    45.021886     4.938767     1.856990
O     24.241750    14.841456    22.661849
O     23.468545    30.581209    10.298570
O      0.527516     5.567501    21.786502
Ca    16.707323     0.917235    19.781483
O     14.404993    27.608117     5.661416
O     13.477759    15.588051    12.140157
O     21.360700    18.241309     9.307424
Na    36.102045    37.332546    32.109424
O     19.603270    41.749893    23.582694
Na    29.166345    20.095081    12.488974
Na    44.455821    46.548387    32.537627
P      0.640840    11.637129    21.335149
Ca    22.538106    22.100921    17.250968
Si    39.380685    15.442363    32.084160
P     12.956635     1.194751    28.741139
Si    11.887860    29.356972    14.954334
O     45.875678    18.612395    22.668602
Na    10.949966    45.067928    21.712029
O      3.906154    35.078994    44.224321
Na     3.223052    31.759551     0.204775
Si    24.631917     8.585662    37.208302
Ca    24.613285    24.567650    34.111578
O     16.545775    33.568926    26.911472
Si    27.464353    23.088300     3.834499
O     19.482400    22.145323    41.971532
Si    40.070019     0.379809    24.021759
O     22.768296    10.888767    44.689449
O     39.846304    29.626974    36.585840
O     39.948222     9.278746     3.073490
Na    16.333960    40.630960    25.222940
O     18.009797    45.280454    28.804084
O      9.504557    42.951319     3.386809
O     32.547522    15.018850    14.296633
O     45.101782    33.199229    27.426319
O     22.666734    38.750334    11.547981
O     41.742383     8.802127    14.124694
Na    43.941661    43.388631    42.036332
O     35.411841    38.217121     5.539338
Na    25.594371    43.530338    20.430359
Na    37.732737    37.890746    34.138487
O     42.737789    28.269218    27.598876
O     34.037320    33.458600    16.442684
O     12.245690    27.626294    15.885997
O      8.967123    19.832011    22.720261
Na     9.123224    23.337159    18.879278
Ca    29.766386     3.353517     9.848858
O     37.834907    30.219382     7.110941
Si    46.401462    40.811934    41.732555
O     18.285131     7.135277    21.886777
Ca     5.172396     4.880502     2.447815
O     35.635013    39.190216    13.514830
Si    19.136098     1.777232    23.244532
O     26.583217    42.113413    29.410874
O      6.732378    27.982488     0.091251
O     40.232510    21.814100    12.110187
O     32.307561     6.471299    24.800047
Si    30.212728    32.285934    46.056164
O     45.788754     8.651432    24.882629
O     11.783665    34.543777    45.088723
Ca     9.144130     4.216570    44.940611
O     13.064845     6.557385    37.225456
O      1.013887    11.915843    34.430379
Na     8.290213    31.078752     4.520796
Ca    19.017224     5.911817    16.474085
O     39.814837    43.126312     5.543255
O     23.999847    16.923340    18.102368
Ca     2.378201    20.449675    42.355141
O      5.191818     1.331036    37.918529
Na    39.508431     8.871789    44.338462
Si    12.633363     4.900656    44.991010
O     38.363422    34.089568    33.170002
Ca    24.353681     4.047637     4.396375
Ca    42.089616    32.601369    19.663170
Si     0.030482    39.874794    28.741962
O      1.046693    28.831361    12.407499
O      7.473932    22.871510    14.236328
O     46.506944    29.754319    42.804224
O      3.271856     6.343373    31.294153
Ca    22.260357    26.453549     0.672461
Na    33.106500    37.467580    44.516175
Si    14.826898     1.686393    19.567111
O     24.839003     4.660534    32.353209
O     39.077867    27.415914    15.780405
O     21.730162    45.418030     2.792374
O     43.720640    28.575342    40.549099
O     24.895853    24.668997    31.061322
Ca    19.085069     2.155018    26.229008
O      8.962909    14.920567    38.144714
O      9.524617     3.244738     7.754693
Na    13.897430    23.324832    22.555202
Ca    19.111813    31.929815    15.073848
O     27.403665    24.283109    11.605252
Na    10.390538    34.461618    40.763396
O     24.906864    19.136450    12.021498
O     38.859192    11.459739     2.226070
O     37.525301    35.555278    31.507237
Ca    30.284849    22.032458    14.366114
O      0.723506     6.090449    43.842867
Si     9.382967     5.802065    23.399952
O      6.019871     4.086162     0.322889
Si    11.629125    34.450195    31.661636
O     22.613012    24.009485    15.705829
O     14.954475    27.127642    19.580581
O      1.320263    37.631779    25.876930
O      4.644654    13.885794    39.042073
Si    36.045104    31.164777    15.543802
O     39.095550    11.699071    29.315845
Ca     3.363519    25.961808     3.777965
Si    27.340287     8.133702    43.170569
Na    19.311221    17.858536     8.663932
O     35.020987    15.470083    33.324918
Ca    26.331933    20.110332    45.959473
O     31.293416    38.876082     9.160721
O     23.202636    30.980006    25.494905
O     41.463161    16.494222     3.304785
O     39.294193     6.825973    19.101460
O     46.593751    35.362037    39.005474
P     12.904331    19.491995     2.090558
Si     9.365487    14.603140    36.334870
Ca    15.631793    44.172455    21.872199
O      7.691837    19.638430    26.827715
O     29.180743    44.325316    29.918832
Si    25.948443    13.939221     7.905488
O     39.316323    45.186612    39.351100
Na    43.229528    29.779680    15.762645
Ca    33.133778    43.548354    19.744356
O     24.633310    12.571608    37.027101
O     10.464748    23.415442    30.854883
O     37.111624    13.667957    16.512270
Si    43.551996     5.655610     5.561932
O     17.673506    23.670527     8.874608
O     28.587534    35.347431    38.844744
O     14.663301    42.618395    27.023811
Na    25.356279    20.126284    43.600138
O      1.517035    26.663716     1.785580
O     17.579752    24.810769    12.270166
Si    24.447264    10.045921     6.570903
Si     3.827781     8.386315     8.129094
Si    33.202018    21.065236    12.852457
O     16.409882     5.463041    33.883170
Na     1.750341    20.148217    11.411453
Si     7.399557    44.000950     7.746722
Na    30.644566    24.448014    22.571902
Si    25.754500    20.113120    29.299811
Na    16.463990    12.693707    10.186791
O     23.689081    12.730213    22.932749
O     19.197469    14.509025    28.670604
O     37.007003     5.152368    21.677370
Na    12.257054    16.450604    35.057908
Si     2.922799    45.323234    14.569458
O     33.197815    12.976838    43.411400
O     12.959477    32.837090    33.555027
Si    24.757516    28.008262    40.579728
Si    21.927455    24.323448    35.542943
O     38.471402    33.618336    36.136377
Ca     9.265433    23.897880    25.717696
O     45.925710     8.934824    10.805792
O      5.867096    34.338571    10.385654
Ca    12.463127    29.655182    36.398879
O     32.867753    44.851094    17.012777
Na     4.773319    34.166395    13.405629
O     43.504656    31.269495    11.940306
Na     6.190020     0.654481    46.211941
P      8.751700    42.646621    25.746708
Na    27.059960     4.794143    38.916125
O     13.041023    42.415935    10.057394
Ca     5.308945    27.841030    26.431352
Si     8.626944    13.572120    44.964780
Si    21.611740    33.196873     7.041266
O     30.959940    11.206521     3.653238
Na     3.193993     1.638890     2.146127
O     13.061129    43.135360     8.238911
Ca     9.256285    30.268342    34.086019
O     24.943484    39.495502    35.985199
O     32.378660    46.295777    19.994812
O      0.156140     3.558048    31.569827
Si    13.004624    14.249972    20.011541
Na    30.045613    43.929551    26.891582
Si     0.663825    12.778340    32.955809
Si    33.347216     1.060170     2.279799
Si    43.589902    45.961000     3.219526
Ca    25.187906     1.368760    22.841478
Si    30.302001    31.382608    35.628528
O     40.252660     0.427902    20.349955
O      8.843066    41.745778    35.326132
Si    27.606998     4.472297    28.880732
O     16.121120     3.083283    12.931694
O     18.236149    44.757970    14.018705
O     26.141897    42.067706    35.825630
O     19.308640    20.909660     0.316589
O     14.703743    40.401285    29.245243
Si    12.874248    30.949307    33.848207
Ca     9.401126    39.630262     3.269185
Si    18.116397    14.217107    29.352823
O     36.088279    30.196645    38.918161
O     42.336188    28.287519    38.183813
Si    28.070300    10.130584    19.373738
Ca    34.691882    37.942063     9.776789
O     12.226696    26.722254    28.033313
Si    43.269816    38.383899     1.829250
O      6.330413     4.942441    30.747764
Ca    10.634588    16.106982    20.346241
Si    38.894748    40.088793    17.369523
O      2.169390     5.280194    41.877530
O     18.216312    45.886780    42.550961
Si    38.256929    34.828129    21.637311
Na    43.210645    18.443207    46.500369
Na    22.606365    42.107774    46.248013
Ca    25.336978    43.141629    17.759919
O     11.963969    39.676093    28.116135
O      5.784408    19.525311    42.355285
O     22.829520     5.649003    23.661113
Na    11.720380    12.225338    29.527103
O     15.365226    41.095377    23.319917
Ca    11.533155    42.723468     2.047379
O     45.503902    34.808155    15.870791
Si     7.529461    31.980450    15.829396
O      6.842924     5.381269    32.110749
Na    34.991915    10.325528    28.524101
Na     3.787755    21.229692    43.515939
O      8.573122    34.977778    10.151775
O     44.411969    34.632411     3.059759
Ca    27.698842    21.920858    28.811517
O      7.102523     8.321676     4.816653
Ca    39.851434     5.546129    37.265551
O     38.603255    42.244013    36.229808
O      5.194874    36.616146    42.477023
Si    19.879592    37.980159    23.652740
Si    24.270171     4.592224    33.902601
O      2.719620    38.997864    13.669246
O     18.554385    23.685819    33.601282
O      3.602151    45.429404    17.958707
Na    19.239302    26.302303    13.078978
O      9.052999    14.844851    28.692410
O     31.953717    20.433254    27.236064
O     42.896509    42.451170    19.319163
Na    11.585512    44.223866    24.019199
O      7.233102    18.652264    32.931618
Na    17.948137    39.463313    19.825125
Si    30.151201    38.449104    20.747380
O     11.447388    19.036871     3.014975
O      1.585455    12.450325    29.922972
O      9.290068    26.135531    25.406185
Na    43.430234    33.995258    16.271956
Ca    38.149957     0.689206    11.895597
O     14.691298    16.727482    31.621899
Si    38.574591    24.825753    46.544873
O     27.729777    10.105883    17.666521
O     38.651049    20.715151     5.982153
O     12.117131    31.366289    37.962951
O     30.996478    45.129552    15.134338
O     29.796879    29.691810    35.831899
O     46.130320    14.176273    26.461768
Ca    33.232750    28.813421     8.286806
Si    20.267305    36.288442     1.515568
Ca    38.066559    12.672591    19.331214
O     36.944430    30.514146    16.249906
Si    39.321998    23.132598     5.490854
O      5.229996    21.204845    26.960584
Si     5.855439     1.797488    36.549726
O     27.564539    22.444953    13.866972
Na    37.617672     9.885718    34.474176
O     35.362365     4.348618    29.283302
Si    16.462801     0.786082     7.765009
Si    10.755148    35.276462    25.940350
O     16.885808    21.743281    10.585610
P     20.724799    20.670802     3.224630
Ca    16.959295    15.914806    21.324027
Na    19.020570    35.078416    15.380865
Na    44.107068     1.098198    46.021884
Ca    25.827723    16.979752     9.454677
Si    11.111614    39.807572     2.653142
Si    33.007665    14.112491    42.229654
O     22.239985     7.793453    35.439531
Na    38.739840    45.618312    14.566247
Na    17.792905    30.840542    31.047760
Na    41.771755    20.135320    36.189500
Si    23.757188    42.474330    19.628229
Na    37.380250    24.983101    30.918648
Na    32.644456     1.130548    13.415856
Si    17.307901    26.651260    12.747027
Si     4.918060    12.507721    39.558257
O      2.247283    45.040763    15.459295
Na    18.837114    44.120277    40.998329
Na    43.599710    19.978499    12.211786
Si    42.155160    46.103389    45.911685
O     12.395114     4.130403    19.902803
O     39.255082    43.049373     0.710016
O     19.616288    35.427247    12.052922
O     18.285995    32.927444    24.711006
Ca    28.043425    43.408792    35.134445
Si    18.740604    27.321170     6.121681
O      9.643601    41.091349    18.194423
O      6.579170    26.130410    15.639050
O     34.118542    27.369866     9.855103
O     40.311588    33.356726    36.631893
Na    33.166501    25.337429    27.602723
Na    45.531788    40.556091    21.204015
Na    23.299906    15.587227    40.956788
O     11.639260    44.258550    17.286839
O     30.177337    36.812315     6.852330
O     11.009944    43.532998    19.957045
Na     3.619544     5.086029     8.615707
O     43.774893    33.198239    21.431566
O     27.288852    37.920427    37.843921
Si    45.665759    18.693867    32.067779
O     19.650104    24.231978    39.961988
Si    13.785550    35.767195    41.000707
Na    39.060188    16.265281    20.656999
O     39.539926    31.018432    19.727989
O      0.923028    27.700040    19.812531
Si    37.737206    18.174923    13.482543
O     35.978766    22.465304    27.497892
O     43.151241    29.012394    32.839100
O      8.212757    21.778010    20.211536
Si    28.350853    22.750950    12.153097
O     19.651142    10.572653    35.208678
Na     5.032634    43.370079     7.009268
O     25.597794    19.872776     1.848500
O      7.055404    35.412638     7.527442
Na    18.031922    32.621463     3.398490
O     39.189895    29.807996    24.092039
O     25.285845    14.255057     2.343726
O     37.090662    16.704149    14.315583
Ca    16.052438    27.022848     7.900392
Ca    21.333645    23.812478    26.210903
Na    15.476640     3.199710     6.720891
O     25.499119     4.951737    40.373118
Ca    37.644579     9.985096    23.088376
O      6.142794    45.169136    31.919247
O     40.454063    33.959047    39.327918
Ca    19.772120    23.587857    10.066761
O     32.560823    22.035529     3.739011
O     35.356689     2.212964    15.443428
O      7.384320     5.961290    38.890135
O     14.711776     7.037176    32.038188
O     18.695185    37.289240    19.230745
O     40.590196     3.148072    21.376491
O     26.829042    24.311191    33.332446
O     23.499513     5.885244    13.305424
O     38.011849    41.734471    44.756292
Si    17.391986    38.671610    37.819758
O     23.646885    43.207251     4.279247
O     22.381060    10.364110    10.195869
O      2.911252    17.301467    15.423191
Ca    10.343211    45.413537    18.596288
Si    23.806192    22.985067    15.538406
O      4.359051    29.364997    13.029559
Si     7.909840     9.903846     4.209051
Si    24.835369     8.697326    46.192716
O     26.024900    25.324443    40.525987
O     34.766371     0.202497    34.385519
Na    12.357838    10.235566    11.967766
O     27.038559    20.203689    29.788405
O      2.990000    46.527561    23.342421
Si     7.183940    28.099211     5.596668
Si     8.739661    16.194490     4.577532
O     17.343636    45.496528    32.079661
O     41.776793    41.422884    27.703753
O     41.702904    43.135773    25.540577
Si    14.882023    44.403303    13.403112
O      0.974131    28.893129     9.577065
O     15.327159     7.359696    21.336194
Ca    32.225228     0.869254    36.350913
O     22.778966    32.610547    12.105212
O      4.338535     5.339214    39.983457
O     38.649168    35.739534    28.859942
Na     4.681725    45.777667    24.536509
O      0.551727    35.825531    29.474385
Ca    46.289537    16.546758     9.335801
O      6.120836     6.871180     1.238743
O      7.569694     1.610527    18.794413
Ca     4.678799    44.835151    37.466043
Ca    37.123232    38.479210     7.345688
Ca    15.863699    16.444078    14.128270
Si    44.824641    35.078814    25.253881
Si    36.298882     9.060501    42.618319
O     32.232808    20.370186    40.493920
O     21.709227    29.649705    44.075651
Ca    15.149713    25.950767    25.119025
Si    23.087321    45.404893    17.805525
O     35.739168    12.143046    14.524864
P     43.465428    12.400625     1.934303
P     21.344038    19.549670     8.248083
Ca     8.228925    18.601846    16.116812
O     12.424630    40.669829     1.898001
O      2.476271    45.343826    38.430235
O     34.097219     3.082301    27.457268
O     42.411962    15.869008    23.868667
O     29.366512    39.461511    19.336846
Na    39.779421    37.659614    42.942896
O     19.870416    10.196314    37.609503
Na    19.509807    20.284210    45.023926
O     30.714602    30.100831    32.454772
O      3.316698    18.820901    43.937178
Si    46.134184    28.267078    20.124047
O     15.092044     5.052918    11.305753
O      6.135411     4.068188    44.296344
O     32.971737     2.340318    20.921083
O      8.081621    19.576500     8.239099
Si     8.511057    42.305222     1.908292
O     38.752420    21.851657     8.403407
O     16.481979    23.531560    41.765499
O     30.266750    40.416104     7.963163
Na    17.379228    15.620809    26.077846
Si    37.306176    22.941236    28.165747
O     40.770031    31.180709    12.380717
O      7.346440    25.403070    46.563699
Si    22.760053    45.952249    21.897629
O      9.601715    13.679039     1.209021
O     33.163558    39.540374    11.563234
Si    27.614114    10.867535    29.778683
O     19.850253    21.086693    39.282156
O     21.080247    11.441569    12.793092
O     40.247213     4.371578    29.012818
O     40.199824    46.377523    40.221792
Na     6.920122    21.268477     4.771342
O      5.733314    36.807086    45.511472
Ca    12.251747    38.996335    20.679005
Na    24.717781    15.708467    15.328981
O     26.714399    39.497430     4.737719
O     21.387490    31.174125    41.186056
O      2.055823    29.173627     7.155897
O     45.713706    17.858833    30.646454
Si    32.836450    30.221378    44.131526
O      5.446005    38.313311    12.243262
Si    23.345573    28.982115    43.397949
Na    32.467594    42.170932    43.606083
Si    19.091399    10.165049    27.559803
Si     6.444073    44.282400    18.900476
Na    15.951781     0.429186    14.123316
O      5.008529    12.016037    19.621882
Na    42.829243     6.315311    37.468456
P      8.052234    10.388102    21.861177
O      4.160016    39.357318     7.827203
O     36.255887    20.985637    41.608456
Na    20.782850     4.559165     3.548070
Si    24.354329    20.413497     1.166933
O     30.147912    18.301898    36.626340
Ca     1.875330     0.070579    31.957497
O      9.615538    16.355288     3.077098
Si    44.461915    18.989565    37.723358
O      5.303598    15.962197    34.813991
Na     5.297074     6.403083    45.616525
Si    17.701133    46.522098    33.471813
O     30.473262    37.700906    12.155808
O     28.327328    20.519475    45.179112
Na    32.271674     8.958822    10.761333
Na    31.194009     4.270112     7.053995
Na    29.686820    22.721751     5.528197
P      7.016828     9.483802    30.865255
Ca    20.499104    41.761612    27.143378
Si    37.595463    33.342165    34.308446
O      7.993779    36.119597    24.968816
O     30.749008    35.328305    42.945359
Si    19.078933     4.399418    41.606128
O     32.829350    34.006104     4.992729
O     46.630200    34.655263    18.151071
Si    41.019789    25.220117    28.845340
Na    24.368050    20.163831    32.844351
O     17.535776     8.406934    45.087318
Na    25.317121    43.999007    15.617721
O     45.126001    28.855088    21.724650
Si    41.012910    17.619482     4.642702
Ca     9.441588     1.867161    35.925573
Si    40.875303    15.901481    24.789594
O     17.420842    16.157871    44.973047
O      7.565725     2.121891    44.021128
O      3.218730     6.763311     7.342575
O     28.680446     9.623422    15.192401
O     33.684527    38.205824    33.833990
O      5.706497     6.640948    30.470754
Si    35.570301    36.824806     5.992224
Si    26.448195     6.300476     5.366947
P     18.565056    37.711672    17.570909
Si    36.529966     5.034985    46.572350
Na    37.870578    27.082353    19.542866
O     12.071296    28.992243    13.043696
O     35.402124    36.960304     7.913238
O     30.661484    14.791620    31.317595
O     22.248544    11.710758     3.897394
O     38.656722    14.934654     4.910731
O     45.895261     5.224465    29.656090
Si    31.439906    45.057395    17.440875
Na     8.944994    18.573317     4.181568
P     16.209648     3.090150    22.523434
O     16.671798    17.216928    32.970239
O     28.878097    32.528034    35.584611
Na    26.134579     9.610736    33.916936
O     28.377434     0.982726    23.073759
O     35.599787     2.972862    31.542420
Ca    10.547593     7.757324    20.640745
O      3.061542     2.178697    22.368194
O      5.292711    43.481203    20.264487
O     38.436487    15.899446    40.668062
O      7.131386    34.296011    22.761370
Na    42.579110    10.426866    25.852792
O     24.684845    14.694812    19.728208
O     33.476392    36.884915    29.153832
Ca     5.357885    43.113796    23.484018
O     15.744298    30.220839    30.652063
O      7.634042    14.276848    35.555817
Si    32.864384    36.442536    21.303511
Ca     6.315124    26.084037    10.652264
O     38.098274    16.058819     7.543455
Na    45.272313    27.975413    16.413883
O     24.531156    26.755932    46.698671
Si    13.779601    17.246478    18.854394
O     34.794332    35.640843    37.513831
O     18.740811    17.119740     6.800401
Na    16.182016    10.257419    37.785000
O      6.824528    39.945125    46.061010
O     34.195469    22.702882    13.237684
P     40.198972    20.912491    12.708188
O     11.282015    27.710616    10.367037
Ca    25.088457     6.964063     9.663786
O     17.031932    10.214849     9.890280
Na     9.149719    39.720756    16.488898
O     19.285613    34.605647     1.708654
O      3.964845    14.465075    32.946394
Si    43.980021    41.567048    36.325399
O     24.860345    23.168215    14.154052
Na    12.373451    20.949250     6.751302
O      4.984014     3.219763    35.663340
Na    32.900455    24.541929    33.766311
O     26.928385     1.268251     0.947845
Ca     7.807844    40.250051    14.429750
O      5.682793     8.861844     7.397604
O     15.732563    24.194969    33.137955
O     45.910145    44.922981    22.907622
Na    26.904220     5.775324    14.062509
O      6.030563     8.220169    31.798989
O     45.693892    12.070393    32.435597
O     44.261968    23.836691    23.481321
Na    30.954361    36.279950    45.314495
O     16.107336    10.276195    25.263093
Na    35.331023    24.928241    46.547046
Si    38.737047    37.323186    10.830476
O      3.899112    11.148344    29.100506
P     14.711883    36.194449    35.765003
O     36.227102     9.277884    20.194011
Si    36.808193    15.311642    41.163231
O     25.527394    13.094445    46.728795
O     13.574150    14.835994     6.447575
Na    26.279187    15.260249    21.265954
Si    29.020631    35.300401    37.027490
Si    32.797545    14.210064    39.124867
O      2.089833    26.770368    10.956407
O     10.208666    28.090512    42.525670
O      7.783596    29.130263     1.973157
Na    37.583453    17.871129    40.341313
Na     9.699589     4.580149    26.310472
O      5.720020    15.622675    20.804243
O     27.864615    17.888780    16.363558
O     10.010762    16.558422    15.631392
O     19.833531    12.097856     2.515848
O     16.227774    44.725119    12.820080
Na    36.941291     8.287626    17.645128
O      2.777463     3.530938    33.270691
O     34.853157    38.486912    27.350100
O     20.939484    32.442532    26.749794
Ca    20.351855    34.930959    17.799051
Si    11.469529     3.159181    21.377440
O     39.288517    33.781708    41.653531
Si    32.299891    27.139315     9.292155
O     20.426541     7.798487    24.849146
P     44.764270     0.967114    35.968498
O     16.032749    46.277896    46.640666
O     32.013397    35.623705    22.711587
O     34.965926    23.314981    33.390317
Si     2.405259    35.105253    12.061768
O     45.005793    27.164734    19.316800
Na    38.308600    35.842559    26.900301
O     31.282393     4.683324    32.408666
O     11.130230    16.938883    40.336277
Ca     7.573331     2.791825    30.157665
O     22.954831    29.533092    30.046716
Si    29.747851    15.935176    19.544982
Ca    15.334314    36.771973    22.647893
O      7.550806     0.416985    22.850638
Ca    28.650894    18.156208    29.699833
Ca    42.707753    21.216535     7.942657
Ca     9.146190    21.182083     2.213246
O     24.837531    19.730482     4.925927
O     45.771437    41.096733    39.913329
Ca    43.735144    38.817531    13.352255
Na    18.731242    45.789127    30.648533
O     21.744319    34.099486     6.492384
O     42.852322    40.529103    24.357650
O     28.077402     6.992411    41.528462
Ca    38.349757    30.230202    18.241145
O     32.487409     0.017446    22.901977
Ca    37.193676    26.915087    27.656866
O     27.624380    37.383086    30.302216
O      3.348296    35.572864    13.303723
O     26.190210    36.285675    20.573549
O     41.904354    16.786551     6.180197
O     15.972262    24.363811    23.524399
O      8.019987    14.627370     4.477900
O     24.390346    42.910662    27.318631
O     45.715634    41.876065    42.771463
O      9.946682    46.122349    23.451166
Ca    17.563243     6.210316     2.646843
O      8.677205    32.924597    14.677633
Si     9.190433    14.166680    26.562404
Si    16.432522    45.260888    41.848140
Na    42.720305    14.002230    40.445048
Na    35.408033    32.138355    13.100624
Na    24.713435    37.469244    19.585862
O     16.695832     8.832613     2.680118
O     20.652115    38.237229     7.213007
Si    19.586271    45.319130    27.870369
O     29.256150    17.798169    18.812567
Na    10.985093    15.836080    13.817827
Si    22.458575    31.959153    10.687073
O     20.904776     2.917861    18.151437
O     19.275945     4.504461    34.679809
Si    26.092688    14.315751     1.482793
Na    16.414785     5.267153    22.843130
Na    12.586544    32.470195    27.025963
O     45.960595     8.566485     7.851778
Ca    41.668132    20.243941     3.939681
O     32.500592    24.438809    23.291832
Si    25.474425    35.626097    22.182336
O     21.078382    39.249596    13.303897
Na    45.150679    24.205652    37.054789
O     14.698728    45.692418    14.960766
Si    36.324381     5.982288    24.982795
O     35.145338    25.843482    22.975304
Si    44.617315     7.791706    25.992304
Ca     2.321862     5.175820    26.717823
Na     4.126251    12.105940    15.049788
O     34.659784    26.899377    28.779064
Na    34.036290    44.389618     1.175845
Ca    42.382678     0.733342    21.591140
O     14.349917    37.858294    30.078253
O      7.409752    43.065428    26.845755
O     12.482681    45.217411    34.561388
O      9.293778    36.245587    39.973977
Na    26.737859    23.517645     0.125004
Si    39.444795    45.788564    34.885010
O     44.512803    26.320297    46.280725
Na    10.248841    15.605890    30.761638
Na    38.127210    10.206976     3.685918
O     17.728719    20.548842    45.870547
Na     2.147733    33.549844    37.030220
Na    37.525891    40.174201    31.819132
Na    20.868205    16.206089    11.248924
Si    40.038712     7.696889     0.197974
O     41.897209    44.159411    17.349157
O     26.996512    40.939890    19.222647
O      2.989127     6.252219    24.499921
Na    10.477959    23.497402    34.919349
O     14.363681    45.320366    36.671306
Si    25.938708     5.101198    31.473393
O     40.103549     6.496971    45.923104
Si    13.944479    11.272542    14.856448
Si    17.947188    34.255297    25.873732
Ca    37.129228    27.259137    42.031431
O     18.220456    44.639262     1.360979
O     23.740880    20.304452     7.269849
P     11.493894    29.047896    43.069401
Si    31.446616    22.185666    26.597091
Si    34.858276    38.129140    35.253616
Si    23.069908    24.477590    28.229992
O     26.156814    33.856501    22.265927
Na    22.411248    10.621341    35.388316
O     16.713881    46.160628     7.478051
Si     9.970586    24.246985    38.177586
Na    18.722923    43.578890    33.577841
O     23.055715    10.663959     7.086354
O     23.593355    27.672514     2.131363
Na    15.277568    11.617972    28.172830
Si     6.414785    36.731981    12.365703
O     37.932299    36.402216    22.774028
Ca    35.360182    27.597080    42.856730
O     20.183510    17.960745    44.539257
O     40.416973     6.737177    35.113409
Ca    18.516361    28.334363    10.248801
Na    16.488345    36.818204    29.841021
O     23.927995    35.344542    21.656122
O      1.349525    35.791189    41.091009
O     18.134949    25.254997    34.160943
Si     0.976460    27.977001    10.944414
O     28.568255     9.410441    20.911673
O     25.523783     4.178012    37.583413
Ca     0.676529     3.686338    12.820929
O     19.489975    11.603738    10.162137
O     35.398029    32.102233    17.262707
O      5.704854    25.528749    43.025444
Na    19.936642    34.130940    42.191569
O      9.522621    42.980120    25.624771
O     27.977078     8.779859    29.892889
Ca     3.225866     6.250213    10.228225
O     30.668387    18.383325    33.529158
O     20.153545    39.820759    23.649133
O      9.103360    20.692596    14.721234
Na    38.867362    35.614347    41.975550
Ca    24.525148    20.821329    13.587508
Na     6.427356    31.096612     0.165233
Si     2.438458    40.465730    14.262335
P      9.603093    35.710505    45.900725
Na    16.626878    42.985126    44.001594
O     13.973914    29.856617    32.365942
O      5.911518    37.395107    23.176457
O     42.314294    44.913332     4.180918
O     34.653023    10.714361    39.395192
O      1.369615    19.617932    16.948180
O     27.342044    19.297792    12.278073
O     45.678262    45.268502    11.843792
Si    38.676719    41.953229     6.452715
O     35.718292     7.832925    22.170458
Na    37.956369    13.255961    24.644236
Na    19.156477    42.751244    25.822529
O     18.180206     4.391051     4.392709
Si    31.495608    38.094033    42.246721
P      5.180283    11.079331    12.939730
Si    34.428255     9.530639    32.522127
O     32.312134    27.294815    21.584538
O     41.645293    26.955803    46.295494
O     39.340228    41.966426     8.369298
Na    21.714641     9.223939    14.941351
O     26.764780    11.241406    28.668581
O     39.266690    40.644047    19.097118
Na    13.523726     1.070996     9.684235
O     29.400334    22.005010    26.640400
Na    25.746678    22.228178    22.775012
O     29.850608    35.515346    39.956929
Ca    18.526182    37.175300    12.694749
Si    13.247154    15.385297     8.255733
O     13.416138    11.833222     6.981135
O     11.650628    46.606586    37.007784
Na     2.328947     4.620754    20.869900
Si    25.310346     8.484500    14.685954
Na    37.185374    10.321667     0.655775
O     18.658397     1.070533    23.664685
Si    18.366735    40.855560    45.661652
O      7.269925    32.615059     8.405843
O     20.971974    18.926275    11.099851
O     22.943201    14.455129    23.601747
O      1.775494    20.281700    40.407050
O     32.853194    35.719630    16.291801
Na    26.132255    28.763069     9.834447
O     40.918067    17.579713    34.547028
O      3.807475     7.164107     3.268950
O     37.688052    28.489326    25.769264
O     26.079223    30.777878    14.100313
O     33.748921     0.664213     0.710970
Si    17.510559     4.413983    34.963995
O     29.287701    31.526315    15.848903
O     39.000768     4.870171    34.134107
O     28.308449     1.974348     8.982748
Ca    38.686186    33.171718    38.362684
Ca    32.356310    46.235677    46.393027
O      2.200430    11.050351    20.518121
O     39.209447    14.993116    22.616322
O     46.601964    41.431540    45.480879
O     40.534386     0.536220     9.109481
O     25.823405     5.759933    33.003452
O     44.314588    41.538933    44.751651
Ca     8.887794    41.922556    38.346575
Na     2.385902     3.777328    43.301006
Na    45.764663    15.946592    36.078204
O     40.004201    27.875187    18.289356
Na    13.484789    42.674749    16.080335
O     10.879691    16.443573    11.856532
O     22.882595    38.674840    15.314055
Na    44.356328    27.958839    44.927256
Ca     6.498328     0.243514    32.664746
O      5.236119    46.103770     6.304216
O      3.041108    33.438994    11.461053
Si     6.107374     5.773993    43.413297
Si     4.697711    42.375157    21.257265
O     23.510697    41.552706    22.634955
O     15.562571     9.841204    32.641423
Si    17.375780     8.831221     9.142658
Si     3.372105    39.210220     2.453649
Si    42.410846    27.337775    39.900464
Si    44.925141    33.757768    42.925111
Si    18.296644    11.320448    35.437971
Si    14.824766    36.098356    30.969963
O     20.437283    30.186060    24.455214
O     17.074578     4.828785    36.416074
Ca    45.865969     3.162876    34.275685
O     37.306431    45.923009    12.898052
O     15.006239    18.301923    14.073939
Ca    10.128974    43.241518    42.463208
Na     6.529176    19.296067    19.801715
O     32.975346    21.296216    29.998153
O     24.335184     9.110401    16.179349
O     45.548695    24.453032    39.199864
Si    40.512253    44.482444    16.370014
Ca    19.098686    35.921756    28.587658
O     26.391106    10.103796    19.251424
O      6.732418    36.232735    14.433145
Na    12.306741    21.154301    11.870955
Na     5.915088     9.968068     5.646664
Si     7.160918    32.407595    20.979762
O      7.918684    24.416434    37.767791
O     45.814406    46.545799    35.666831
O      3.106492     9.516515     8.531218
Si     7.183963     5.401068     0.989019
O     37.796631    45.076389    40.703298
O      2.062191    43.087480    17.214124
O     21.280931    29.596660    27.306381
O     37.711070    23.261831     4.476628
O     22.570041    25.961062    35.677135
O      2.606492    27.135660    46.460511
O      2.372929    30.767040    19.452058
O     12.329453    39.857281    18.528385
O     46.488346    35.956756    24.954496
Na    20.981156    31.158570    36.851614
Na     3.504544     2.645795    31.109029
O     34.994073    31.040198    14.881158
Si    20.406991    14.099933    42.951349
Si    24.507598    41.396214    35.351339
O     39.854726    13.407978    20.328304
O      7.119699    28.357605    20.651035
Na    28.667034    46.458584    20.398661
O     12.520973    11.025013    16.137897
Si    14.667364    12.763313     6.102911
Si     5.531233    42.938896    14.847579
Ca    15.281918    42.693162    46.100902
O     39.724493    14.846362    36.610892
O     13.731447    43.837603    12.354580
Na     7.152643    42.825413     3.896730
Si    21.956743    12.529703    15.572772
O     36.693704    42.846397    12.215705
Si    21.931326    10.680670    26.758425
Na     7.256883    38.388134    10.124166
O     38.415271    23.064272    26.596263
Na    17.634717    35.773508    39.079319
O     46.653224    40.126738    28.038464
O     39.979626    28.985804    20.727796
O     19.405120     0.776943    16.133823
Si    15.457042    43.587593     2.133355
O      0.828297    43.491144     4.590521
Na    15.003084    27.557582    21.987641
Si     8.087985    23.724311    46.381834
Ca    18.019077    11.311116    16.404280
Na    30.811269    33.781523     1.082950
Na     9.674566    33.149060     8.527774
O      1.117157    16.563219    36.120746
Si     8.010697    26.420770    26.770579
Ca    26.616607     9.638859    45.040107
O     24.781121    26.744557    25.324244
Ca    26.929711    35.097339    14.931454
Si     3.354888    27.757853     6.705362
Na     5.190367    17.714798    29.014426
O     41.229025    42.082559    20.648867
Na    19.349542    37.166380    20.962959
Si    16.706025    44.410406    46.682820
O     12.652020     2.826957    29.410102
O     20.979094    32.362600    44.188212
O     33.389897    10.769176    32.627866
Na    17.614381    35.799936     0.450632
Na     7.937697    32.022926    44.772632
O     39.121064    43.854662    10.244825
O     20.239073    10.978844    28.741107
O     24.325693    37.363002    30.511169
Na     3.234762    21.977764    39.288928
O      7.574823     8.085150    40.961532
O     19.927707    26.106611    32.011803
Na    37.847472    22.097669    45.067270
Si    36.267660     9.046953    22.101155
O     37.977029    17.339628    44.993057
O     39.667626     1.504841    23.100405
Ca     9.417216    27.604959    14.512894
Ca    14.617274    11.793747     2.919020
O     41.279492    28.295918    16.487696
O     43.950367    45.540047    45.561315
O     12.939129    35.178256    35.363715
O     33.271135    37.752557     2.854699
Na     0.004160    10.303268    34.906156
Na    22.664873    30.022288    23.049650
O     31.202518    39.687565    42.772168
Ca     2.618167    13.387796    39.228986
Si    38.472276    14.041361    21.227166
O     44.546117     6.187417     4.067108
Na     4.142510    28.556755    40.135063
O     40.766545     3.289981     8.874855
O     20.751130    11.167645    20.543110
O     23.004476    36.445483    14.333623
O     42.791194    22.455840     1.378014
O     43.753452     6.814621    24.706050
Si    45.343832     3.643525    30.503488
O     35.399514    30.958668    26.850776
Ca    41.220901    41.285798    17.579300
Si    21.227174    11.590592    11.067873
P     43.574720    23.543864    24.630361
Na    33.521741     8.321495    24.563213
O     42.304858    30.072836     9.603090
Na     4.516981    46.755443     4.490206
O     28.838407     3.282271     6.515200
Ca    12.540531    27.271157     2.643317
Ca     8.664303    16.555404     7.834371
Si    40.611809    34.818219    41.335206
Na     1.485421     0.457141    38.781606
Na    23.891796    42.301926    25.553530
Si    37.456953    43.380047    35.977458
O     28.424509    44.880579    16.339043
Na    27.218792    44.425681    31.361286
O      6.376664    10.517062    13.034736
O     20.970708    42.582848     3.166417
O      7.376900     2.515693    36.351889
Si     4.970259    46.744150    31.089495
Si     8.509408    19.353759    21.098115
Na    37.832512    34.628957     3.981726
Si    35.236006    41.128202    12.890682
Na    22.915109    21.582399     5.870537
Si    10.977649    35.745071    43.866418
P     20.764831    25.546838     6.856948
O      8.798806     5.782361    17.632182
Na    44.686700    42.052200     2.213823
O     28.842345    16.709954    26.763828
O     41.975655     0.364344    25.069803
O     20.623828    35.889425    40.742532
O     22.923812    42.870001    21.229530
O      4.418279    44.518196    14.901000
Na    43.246499    29.355747    19.361379
O     29.703161    25.201076     5.978672
Na    46.414474    37.189856    40.108762
Na    46.545773    20.916617    21.149804
O     39.833194     6.302756    27.131664
O     23.718805     7.691737    46.584012
Ca     1.959251    30.060561    35.301576
O     17.982183    33.555583     0.607563
O     43.576737    22.029072     3.183691
Si    41.133117    14.066395    35.981912
O     38.089669    13.017547    13.495027
P     24.975251    27.621835     1.025961
Ca    11.956527    46.227878    25.634167
O     22.251037    25.932356    27.374175
O      4.491279    23.814644    27.866540
Si    36.204486    20.691308    40.264027
O      5.961835    14.652478    24.621737
O     12.246533    36.875709    40.551149
O     25.736327    36.560130    23.744944
O     15.317916    31.010159    38.357043
Na    37.983112    41.467848    21.112829
Ca    37.875953    27.468191    32.668774
Si    11.585574    34.147045    35.060933
Na    32.214636    40.541384     9.637747
Na    12.746752     7.811597    30.629490
O     44.027057    35.733747    22.047347
O     41.823749     8.403265     0.056326
Ca    43.464277    17.138989    39.299993
O     13.027013    30.652269    16.002955
O     17.414600     9.653717    20.758569
Si     6.884733    40.526708    13.137723
O     26.371662     7.929350    46.284028
O     29.408556    31.637137    19.113775
O     45.376512    44.364291    14.368963
O      2.262277    18.992947     8.202643
Si    12.855735    41.441066     8.889194
Na    16.117191    41.132651    38.764844
O     18.156647    30.263655     7.782884
Ca    30.819491    23.830879     8.809153
Na    23.392798    22.052434     2.993038
Na     9.674738     1.859106    20.039370
O      0.406884    10.828622    22.904051
O     14.286728    30.634953    35.175428
O     33.146855     5.720935     9.336908
O     17.884105    37.189799    32.156812
O      3.806203    10.816769    13.218729
Na    19.575989    40.239033     6.000262
Ca    25.815321     4.902344    44.263928
Na    44.864919     6.112224    23.298212
Ca    15.474344    16.625453    23.828530
P     17.853757    18.058227    15.710126
O     21.049068    36.187284    44.463084
O     27.677373    43.116865    44.753534
Na     7.012935    43.055576    36.390098
Na    17.706566    20.115221    25.651293
Si    12.098847    42.821252    21.354906
O     39.114321    15.490527    38.200691
O     40.691765    24.333271    28.025758
O     32.769039    43.954599    27.261889
O     10.449307    28.565531     7.743491
O      0.390160    10.270592    41.235343
Na    45.567470     0.122538    21.792959
Na    38.943930    29.003426     5.472618
O      4.300358    16.998544     3.202788
O     10.712853    13.200736    26.556291
Si    38.062096    14.866433    37.363450
Si    16.958875    14.724185     7.248000
O     32.675278    11.954539    22.922185
O     15.691958    34.588332     0.593618
Na     9.038029    40.985145    20.097382
Ca    21.277505    12.560016    29.652065
Si    24.991196    20.239298     6.063330
Na     0.608664     3.033837    41.440477
O     23.067996     3.518087    39.502848
O     35.739127    28.951099    41.270134
Na    18.568922    17.264112    28.857775
Ca     9.140855    20.801606    28.251246
O      6.797223    25.516367    26.448438
Ca     2.270311    17.478485     2.408866
O     20.673783    15.511014    43.372645
Na    20.950634    41.930870    30.612612
Si    46.233263     6.633909    21.002352
Si    10.748233    39.542881    18.714519
O     35.710806     9.468959    33.890873
Ca    14.837771    20.537480     9.314842
Na    26.719051    24.469799    13.889023
O     27.209064     2.367513    21.142153
Ca    36.037780    34.512663    41.381065
O     26.238576     3.845206    27.898685
O     23.968455     6.272990    38.273098
O      1.969163    14.305857     8.237430
O     12.677284    34.629661    40.013469
Si    22.458794    43.834614     2.964666
Si     9.809252    45.832879    10.085537
O     16.337949    45.587962    34.575332
Si    30.368343     4.296732    41.975044
O      6.840625     4.846427     7.549230
O     20.811826     8.526018    19.497922
O      4.841703    41.813258    45.761614
Ca    24.026070    40.436157    10.722773
Na     4.531216    23.746247    25.666494
O     37.839247    30.484964    32.221719
O      2.492412    35.095137    38.447578
Ca    35.150680    45.273930     6.299848
O      1.302721    19.915118    23.762171
O     11.624307    30.200210    34.678462
Ca    39.929972    34.325540    13.265184
O     18.855643    36.715106    16.216000
O     25.516867    21.349380    29.052440
O     14.046340     2.415458     2.349864
O     23.130543    23.719464    23.963573
Si     8.907918     1.339970    43.301281
O     11.913008     1.096330    27.371503
Na    27.283800     2.507027    38.836019
O     27.610935    35.866130    42.176412
Na     1.307196     8.793827    21.594787
O      6.164170     9.882134    14.944413
O     38.077599    21.988688    29.667708
O     17.066957    43.014647    23.498193
O     42.724098     4.875439    44.477169
O      1.283540    33.519463    27.534087
Na     4.316593    23.014784    20.702159
O     10.085404    36.118212    13.170249
O     35.355254    14.408473    30.313600
O     12.198887    27.345906    19.045880
Ca    42.287470     2.359465     1.196080
Na    10.631660    17.132837    33.908550
O      6.791722    23.526005    18.572899
O     13.161207    25.004403    30.512275
O      0.283559     7.512690    19.497163
Ca     0.172353    27.121453    18.182320
O      9.880641     1.887365    25.137586
Ca    41.962241     3.708947    41.465512
O      8.704353    40.683990    25.697212
O      1.851535    15.825912    25.551456
O     18.227987    31.509183     5.364004
O     14.423125    26.839880    17.026413
O     33.125800    22.948580     8.925931
O     18.497198    10.446138     1.621547
Na    19.644525    14.599373     8.017966
Na    21.579106    36.496553    15.694034
O     28.617597    20.437784    24.167583
Si    18.716751    38.920240    31.897809
O     24.807951    11.087440     5.102920
O     21.998739    42.958683    12.904370
O      8.502750     8.341610    14.247425
O     37.048356    32.558048    14.739687
O     34.962188     5.348676    31.803772
O     18.570520    42.154436    44.396708
O     19.837138    28.747604    41.204915
O     15.606271     1.140938     9.364881
O     29.417852    14.790201    18.133198
O     12.221336    19.581919     0.406311
Si    14.993563     3.660381     1.311859
O      4.863623     2.665761    45.411104
Si    40.887069    11.986363    28.657438
Si    15.280391    17.693362    32.099999
O      8.440067    18.460094    29.673344
O      2.095858     9.441982     3.560112
O      4.144174    39.999090     1.072096
O     42.141550    24.231973    24.439697
O      4.442525    32.111181    44.735541
Ca    29.703566    18.294817    39.385404
O     37.241850     4.258548    41.446723
O     13.465502    18.129362    11.940918
O     10.980622    10.117897    26.271280
Si    26.112594    18.066728    12.719056
Ca     3.421037    30.804990    17.432567
Si    38.643736     8.340449    19.991029
Na    40.417935    12.361398     8.941357
O     31.080167    38.484689     1.017746
Na    36.585291    26.042179    10.654173
Ca    46.394336    14.549705    39.764721
O      6.260118    29.353978    30.072553
O     42.071440    33.938855    13.025788
O      8.861789    30.057375    46.688280
Si    16.631364    23.933172    34.653350
Si    14.824514    23.773086    41.182475
O     39.594666    18.473367    38.753159
O      4.898884    28.442526     5.904271
O     27.049508     9.397547    42.672658
Ca    43.473352     5.854670    15.136497
Si     5.979376    22.399407    10.518716
O     23.395455    30.318165    13.184191
Ca    19.369788    45.397400     2.736735
O      9.158352    45.836429    34.401221
O     31.955113    29.907643    42.453535
O     41.872064    37.912783    22.677324
O      0.846016    42.478258    32.258571
O      4.532901    39.720111     3.845915
O     17.677182     2.324485    23.198956
Na    17.573348    14.846409    33.439071
Ca    29.256280     3.623121    26.425478
Na     6.805173    16.184737    37.070649
O     43.580515    16.196443     1.372038
O      3.599928     6.159038    43.741549
P     39.590745    24.344020    39.457956
O     18.901245    10.008647    18.271497
Na    26.207523     2.069015     3.924544
O     16.218640     3.080038     0.330952
O     43.233338    29.062501    30.118457
O     31.328616    10.613565     6.150590
Na     7.611053     9.663996    11.337360
Si    25.146298    29.435104    13.505918
O      5.057216    21.341123    19.706987
O     17.715054    39.770944    45.111766
Si    20.171661    36.505058    39.340164
Na    32.842885    32.217578    29.510550
O     13.557924    29.351806    39.932700
Na    12.458486    46.112005    14.345938
Ca    21.206972    27.142239    34.411296
Ca    29.525580    20.468651    29.364988
Si    29.231536    35.016319    41.846393
Na    26.857946    18.476931    26.391039
Si     5.851425     6.735256    32.421646
O      4.800729    29.376419     3.327090
Na    25.529817     7.040531    41.483515
O     39.373188    28.668337    33.933640
Ca    13.835868    26.053047    32.056007
O      8.447295    11.594369     2.601037
O     17.042942    18.656143    17.186564
O     35.116059    36.068167    26.849918
Na    31.846124    46.633317    27.515289
O     18.300168    40.575134    32.800388
O     30.159625    43.041346    36.679709
Na    39.169555     8.364400    36.345709
Si    32.731453    39.094176     1.725879
Si    45.851137    46.138752    42.377677
O     19.011592    11.908733    43.843143
O     13.795274    24.375392    41.829267
O     44.779113    42.738160     0.230331
P      2.253801    13.245673     6.695623
Na     5.702673     2.170268     1.908661
O     16.590560    18.948508    14.868354
Si     0.344308    36.801709    31.092756
O     24.632544    36.616515    32.309873
Si     1.033761     4.212033    33.760547
Na     6.290228     2.867398     9.050522
Ca    42.724310    36.705181    43.424500
O     38.290718     1.138685     5.247135
