2835
Stage 2: Aging N=2835, rho=0.9998, box=46.7700, NC=0.327, bonds=518, seed=42
O      1.168524    29.082662    40.484668
O     13.858374    34.011190    22.204661
Si    37.049717     0.709461     5.452613
Na     6.984211    23.755780    30.046997
Si    32.585487    10.004958    13.869659
O     10.121616    16.151171    35.593794
O     39.874502    26.766142    29.281844
Si     7.386212     9.260790    13.693494
O     29.108389    33.073890    41.905184
O     22.360981    15.600365    19.781113
Na    24.672072    30.275671    30.799159
O     31.346494     3.034906    46.643627
O      8.164615    37.807629    22.706073
Na    36.132162    25.754221    25.360079
O      7.486603     5.751457    45.094917
Si    12.427279    14.893126    11.885574
O     42.061581    36.729609    14.205010
O     32.733599     0.991468    25.757257
O      1.550842    41.181659    41.278421
Si    29.242537     1.927058    21.608265
O     14.951932    24.526692    39.479654
Si    16.205692     8.284975    31.294352
O     24.204583    41.300472    33.438683
Ca    25.134173    25.018829     3.546172
Ca    15.692475     5.597926    45.096227
Na     0.272115    18.840022    12.271382
O     33.460599    46.531430    37.570543
O     31.613804    22.317625    24.748294
O     15.206504     2.587540    21.097769
Ca    35.394387    33.851025    20.608037
O     20.768767    33.570955     8.839206
O     25.753536    24.450370    37.263306
O     27.296333    12.467871     7.730311
Ca    12.598878    30.947047    17.981386
O     43.431287    25.700036    39.572032
Si    34.820010    45.113806    15.216716
Na    42.944878     4.893830    33.128437
Na    45.872804    43.158425    18.617956
O     37.966879    14.182625    20.831653
O     29.586145    37.591150    21.038132
Na    46.595239    36.007707    14.228019
Ca    40.483437    22.831981    24.324809
Ca    42.613381    31.419531    44.603075
P     16.247713    32.744776     1.134800
O     17.545405    23.619221    25.322922
O     35.171351     5.878871    35.936537
O     26.501147    30.913648     5.313746
O     44.182982    42.628329    16.919763
O      7.279768    26.861479    41.197947
O     14.960096     1.318078     6.675136
O     39.534604    34.080359    22.697406
Si    40.768230    29.558615    20.224316
O     21.732643    10.558776    28.604512
Ca    32.964113    38.748869     7.415097
O     26.017158     7.448630    43.524828
O     34.207233    28.560974    39.122593
O     18.647010    43.134858    16.764357
O     11.055735    37.619243    30.115148
O     35.532551    36.438868    29.352156
Na    25.914687    37.251341     6.269694
O     39.998548    19.414693    46.000518
O     30.679981     3.787808    40.021004
O     42.494774    46.495737     0.982626
Na    24.980822    45.489606    32.775529
O     24.508027     9.127968    13.025545
Si     2.761458    16.920073    25.272095
Na    30.481957     9.706216    35.289434
Si    30.848020     1.823085     0.493793
O     43.705874    28.750902     0.311063
O     29.053742    23.821369     3.508152
O     10.472194     1.578037    42.538007
O     13.823837    30.084956    46.504599
O     22.676885    13.659038     1.307212
Si    20.930593    41.079854    24.381747
Ca    11.377375    10.123709    22.631966
O     20.085980    19.381360     9.650277
Na    40.992410     1.553864     6.420141
O     24.881017    35.948848    37.265821
O     24.665960    37.057888     9.615337
O     11.274092    34.032403    33.661678
O     11.395211     2.347133     9.433282
Si    22.552078    44.967878    30.450480
Na    46.088867    42.335743    26.750743
O     44.247364    23.570845     9.887257
O     42.595343     5.853121    13.247069
Ca    34.499280     6.579978     2.497132
Si    24.034092    11.831994    43.726492
Ca    24.559711     8.880941    21.237684
O     28.022919    13.333851     1.940889
O     45.068344    45.591758     2.317066
Ca    40.346883    13.871632    13.525618
Ca    12.412886    28.108805    41.581212
Na    38.900987    11.522270    36.201479
O     36.053013     1.255147    25.517297
Na     9.536880    26.574567    39.430027
O     18.432418    39.275455    30.006379
O      6.719364    14.862843    32.684090
Ca    30.529874    46.091008     0.561905
O     26.755158    14.859287     6.496780
O     45.012712     6.342537    38.294907
O     33.510113    16.768903    17.302801
Na    32.255245    23.921538    11.653880
P     44.099753    34.267020    10.162159
O     25.568827    17.057696    20.291542
Ca    35.296507    29.013836    32.917177
Na    13.527458    19.065333    15.579294
O      5.855995     0.455075    35.065329
Si    20.074026    30.620587    40.635491
O     13.762541    20.420495     2.621668
O     37.706496    12.214734    22.381201
Ca    19.634579     7.901707    10.753314
Si    13.159580     5.406948    11.246029
O     11.345726    24.371711     3.130705
O     37.295615     5.495408     6.995628
O     34.374451    19.681096    13.383835
Si    40.839727     9.177445     9.860195
Na    39.592571    41.668882    22.878826
O     11.997437    40.303487     7.622049
O     44.270009    12.775232    27.084989
O      1.632931    39.374250     3.190388
O      9.114345    34.186690     6.090201
Na    17.948637    18.098563    12.704722
O     30.349579    17.399516    30.294969
O     34.366597    28.457650    25.445344
O     15.402306    11.172875    16.024568
Si    42.276875    23.459666    35.173507
O     17.802861     2.656315    34.762270
Na     2.003376    16.971938     6.724159
Na    12.620304     6.018651    21.211120
O     43.359457    46.235998    36.130168
O     24.437439    13.477066    44.306794
Na    40.362228    15.732403    28.499169
Na     7.839888    14.328129     2.129150
O     41.896776    11.870203    30.019206
Na    27.612733    21.945658    38.457727
O     21.042736    20.210545     7.606041
Si    44.369485    21.968914     8.921505
O     20.324874    23.670679     6.938480
Si    13.984696    18.268622    12.052633
Si    41.985123    31.449329    11.043505
P     45.409806    34.017942    17.490164
P      8.270354    28.591159     0.522799
O     42.375334    25.507668    28.603832
Ca    44.323009    11.636457    10.509215
Na    46.731245    29.343678     7.197435
Na     2.562538     6.506438     0.308197
Na    44.952879    32.292615    13.467561
Si    20.931628    38.306216    11.400653
Si    18.496486    14.035496    22.754158
Si    41.703006    44.392420     4.271377
O     36.075517    45.986969    14.405297
Si    40.646314    13.606762    39.074242
Ca    39.044452    14.251607     2.193852
Na    26.214509     1.083885    15.540696
Ca    32.868965    19.123274    25.742786
O      1.916968    23.831192     0.321565
O     45.112523    20.458289    37.177115
Si    45.464744    42.427200    33.230656
O      7.082226    44.554490    24.359497
O     36.463074    12.708399    32.747394
O      6.608773    39.691341    12.284062
O     37.964360     8.698298    21.142246
Na     7.790447    13.088358    41.986685
O     40.674571     9.564347     8.861743
O     22.290618     3.585178    12.135236
Ca    43.216652    44.158516     0.830061
Na     9.074558    43.658881    20.661506
O     17.985892    45.034804    45.412947
Na     5.721247     0.631032    19.199138
O     44.360929     0.281860    13.495167
Si    25.867407    23.260265    31.734319
O     39.912366    10.274674    11.534540
Si    36.463627    20.771495    43.298461
O      5.330334    35.105965     4.562162
O     42.192376     4.703292     4.752196
O     38.485018    23.787602    40.743354
O     20.736737    37.035210    24.760500
O     46.249681    32.921375    43.945812
O      3.222190    11.804622    40.204122
O     13.582571    16.505861    19.324307
P     41.625364    16.499828     2.220142
O      2.827309    43.609780    19.302029
Na    14.794252     8.902861     4.096249
O     45.335520     6.183791    26.707998
O     17.813795    15.758751    23.590025
O     23.397177    19.324865    28.221000
Ca     8.058117    45.933075    15.970834
O     23.688466    44.852352    29.011017
Na    19.125204    27.074325    29.566825
Na    32.941464    22.783879    39.974131
Ca    26.572777    13.093478    44.815974
O     30.365103     6.146985    22.482423
O     35.582335    22.306008    44.115614
O     18.021335    39.574143     7.862796
Ca    10.172910    27.854486    45.552527
O     31.814189     3.556865    42.970214
O      4.012896     9.871123    22.710791
Si     8.016403    45.710416    23.270278
O     24.513195    29.657694    44.564437
O     24.881855    43.742999    46.045696
O     12.378348    35.158170    26.889580
Na     3.748656     4.884884    35.507450
O     19.128166    36.955876    41.166352
Na    42.455128    15.479289    34.822825
O     30.712201    35.250166     5.998120
O     36.797494    11.438696    37.574063
O      0.181616    22.637741     6.651086
Na    35.955367    12.349624    26.427278
O      9.869039    14.304720    46.249881
O     26.232904    19.162887     7.417794
O     20.566113    21.570768     5.196148
Si     4.052626    10.565878    20.395040
Ca    28.615468    26.648918     8.691396
O     14.381294    21.930626    40.386963
Si     7.200340    19.772897    28.979736
O     21.740998    14.786090    26.730872
O     44.834420    32.648059    17.404226
Si    26.353208    36.975044    36.568114
O     18.493372    19.113274    28.127158
O      1.771165    40.350502    29.189290
Si    31.170641     6.211828    12.891517
O     21.165060    14.223718    10.950274
Ca     9.061093    34.227963    16.416935
O     29.136490     3.294292    42.779151
Ca     5.431269    25.583212    28.809153
Na    33.435154    34.580740    14.242939
Si    35.816332    39.901595    23.547054
Na     3.153831     1.728662    24.823859
O     30.238213    37.916995    40.872319
Ca    27.440156    10.420507     5.982744
Si    42.934810    27.568810    31.041816
O     26.001425    46.722364     3.452344
Si     4.857582     5.618489    29.078572
O     33.516191    44.546588    40.678624
Si    18.725213    36.417365    42.233419
Na    41.394211    28.450468    29.211962
O     17.785495     7.641274    32.224164
O     45.814272    33.272277    29.387066
O     39.217032    25.388740    46.672613
O     35.909074    37.298570    35.147664
O     24.252150    28.321517    41.917530
Na     0.456698     1.342775    30.038405
O     40.437866    31.056103     3.347972
O      1.402331     9.734286    28.897013
Ca    17.677333     0.245600    36.064416
Na    41.462503    39.817295    20.331888
O     45.343238     1.942791    29.627133
Si    19.151166    38.086193     7.510960
O     38.776613     9.046432    46.491948
O     23.110922    21.392465    14.875451
O      8.290707    19.576303    18.832434
Na    14.151073    15.896996     2.764767
Ca    13.332239    28.223980    45.687169
Ca    36.521708    24.525253    21.625830
O     10.664488    12.048025    22.323248
O      1.453346    18.304480    25.087926
Na     9.059745    29.881144    21.097311
O     20.980790    12.612791    16.780241
Si    45.401483    33.106767    22.779637
Si    22.543297    43.101768    23.085693
O     19.419879    17.852351    16.619623
O     28.236686     5.541233    27.868796
Na    14.359229    14.170106    25.070766
O     19.061268    37.811137     1.794252
Si    38.627993    29.660967    35.963854
O     37.066771     9.913421    44.142246
O     10.327112    21.308203     7.539291
O     14.924945    14.331614    40.243812
O     16.934677    17.679675     4.701252
O     15.805184     6.501080    24.187520
Si    29.622227     8.107040    15.653031
O     26.984181    27.127554    23.024864
Na     0.442801    19.214018    36.256166
O      1.778727     7.966301     1.941721
Na    11.018264     3.524069    14.336371
Si    20.289154    21.783953     6.545355
O     12.974049    23.818733    11.990227
O      0.675968    18.160495    14.358429
Ca    22.448142    35.242051    10.347677
Ca    39.980977     4.872735    22.369289
Na    16.418546    27.015608    16.204490
O     22.810325    19.870474     1.953298
O     21.960407    43.435485    31.392797
O     42.929801    33.026376    10.830238
O     18.303391    32.127963    40.634639
Si    21.108403     7.475268    23.049756
Na    10.394630    12.120283    12.542521
Na    14.054037    21.527393    37.092311
Na     5.917778    19.342158    24.014887
Na     1.030488    22.518370     8.955792
O     10.013661    18.463793     7.048377
Na    39.899509    34.734773    24.493384
Si     1.956493    41.168569    33.398682
O     25.101112    18.563080    13.692722
O      6.510380     6.046405    24.731685
O      8.309141    27.578011     9.612417
O      4.231080    28.429162    10.361502
O     21.476211    24.790513    29.737435
Na     2.376360    28.371962     4.825595
Na    33.069412     5.390368    14.617863
O     38.866554    18.213785     1.377538
Si    11.840511    33.365037    45.664707
Ca     1.303228    41.826463    21.659171
Na     8.025657    15.510113    17.656746
O     42.767329    46.563469     4.762649
Si    28.574114     1.714588     7.477080
Na    39.392548    42.928592    12.428856
O     31.771501    25.735487    10.457493
Na    14.162330    12.327481     0.658216
O     31.477942    15.602605    19.734645
O      7.560217    32.274741    20.943926
Na     1.467366    14.216355    31.747633
O      8.823982    10.893425    20.386970
O     20.374562    21.130408    24.322702
O     32.343144    45.735552    35.103650
O     21.774069    10.642812    17.944884
Si    39.511861     1.916302     8.406813
O     39.065002     6.722406    30.121443
Si    44.367516    13.800503    27.017983
O     29.071531    30.857169     4.127215
O     32.576365     8.118019     8.946194
O     30.783678    45.328555    29.207143
Si    28.396440    45.942915    16.773890
Ca    23.276933    18.584708    20.168437
Na    35.774010    15.424856    22.613846
O     27.727462    41.311295     3.797056
O      1.992895    18.062742    11.045428
P     21.297072    39.528733    14.961611
O     34.984008     9.408487    30.873288
Si    19.405600     2.311817    17.295961
Na    11.395926     6.515797     8.255969
O     14.531390    43.360622    28.912929
Si     7.359217    34.223421     8.950705
O     11.935087    26.014082     4.161784
O      4.307756     7.821764    26.756279
Si    15.746512     7.012019     4.923832
O     24.091720     6.403124    32.347449
O     15.988655    21.811119     7.904163
Na     0.596998    35.811345    27.432549
Na    43.763371    12.493001    29.264496
O     13.884886    12.780965    14.739158
Si    14.486474     5.934892    25.785107
Na     0.808783    17.170778    26.899962
O     32.807127    11.100902    15.249632
O     40.125673     7.595019     2.004813
Ca    10.888089    16.305202    25.109065
O      7.668717    28.261975    27.346559
O     36.185084    41.643484    24.363612
O     13.945248     6.970717     4.027048
Na    13.211057    40.310617    15.976906
O      0.178079    40.897074    33.952335
O     35.555831    19.284818    43.875738
Si     6.537710    22.784575    19.012051
O     39.062615     0.588049    35.221112
O     12.840830    16.912469    17.841511
Si    20.340285     2.428844    31.297079
O     23.212309    45.431209    15.913603
O     33.930130    30.076922    40.509596
Si    31.773178    10.262428     4.499177
Si    36.338433    35.932514     9.679641
Na    24.399305    32.633792    14.228470
O      2.820781    26.790148    37.670565
Na    10.794964    44.192154    39.672755
O     10.085376     6.116027    25.115155
O      7.892416     4.928635    23.774092
Si    22.793671    44.006093    27.056410
O     25.259891    27.021901    41.209839
O      8.949048    25.730707    28.270802
O      1.355612     5.776093    33.505694
O     19.599748    28.925103    12.101631
O     24.670834     5.070112    11.416963
O     25.289670    19.246624    27.529156
Ca     0.340593    12.534321    27.245660
O     17.744105     7.932060    27.501624
Si    24.233017    37.836686    14.939015
Na    27.315459     7.791546    31.371881
O     12.688919    44.549858    22.342592
Na    15.927963    43.417106     7.474359
O     41.205969    29.436749     6.020139
Na     7.108206    35.346045    17.023764
Ca    17.217026    40.555380    16.406975
O     30.767530     1.011417    44.120134
Na    39.377072     4.456320    31.443846
O     13.275225     6.729639     9.932254
Ca     7.975727    25.665531    44.313735
O      4.199600    46.039989    30.218435
Na     5.600743    25.814005     1.379812
O      5.573070    32.013788    20.673658
O     14.467053    38.940938    26.290930
O     11.486392    13.436541    31.382197
Si     8.390631    40.100499    35.625588
Na    14.442673    12.155363    17.430022
O     20.290479    20.930920     2.006191
Na    20.414010    22.416988    34.166275
O     38.104511     2.825407    22.709730
O     13.946446    17.070362     8.735780
O      6.078766    37.486996     6.124715
P     20.645125    19.360991    24.125963
Na    38.174606     1.017233     2.446609
Na     2.542565    17.246944    13.167453
O     31.744328     4.582619    12.104741
Si     0.501695     9.776898    24.556549
Si     7.385016     1.961003    20.408898
Si    22.974040    18.696019    26.373850
O     34.444104     5.047679    41.753795
O      3.021597    42.029278     3.375008
O     25.191002    37.982148    13.327493
O     28.536003     8.029058    44.808116
O     46.274505    16.503578    20.866711
O      6.467020    30.294309    44.163676
O     40.205101    46.421502    29.063379
O     25.042508    21.734097     6.287026
O      3.691144     7.876863    38.493745
O     19.361754    23.706174    46.063895
O      0.808923    45.230567    18.514369
O     29.396592    20.340466    39.041444
Ca    28.326877    26.396460    41.223126
Si    31.233537    20.502561    38.796970
Na    11.027872    20.779702    22.822219
Na    25.933688    22.413024    12.208990
Si    35.946963     5.038668    42.838680
Ca    38.929046     3.148430    25.354254
O      3.728600    17.388074    32.514778
Na     6.167130    14.868086    12.370396
Ca    46.450237    42.933822    29.784871
Ca    42.902904    18.240943    32.061381
O     10.381429    39.578484    20.611821
O     45.097564    25.052016     5.681733
O     40.502353    12.900500    27.577523
Na    39.992668    37.666979    14.300969
Si    30.232868    15.069193    36.175177
P      6.166525     2.628213    44.323061
Ca    35.076980    31.446864    32.476312
Na    16.090448     0.197321    22.996181
O     16.676779    44.357589     0.418707
Na     9.591677    27.847190    16.731470
O     15.440292    21.421683    24.437609
O     10.542427    36.162799    24.037061
O     10.026001    11.989159    18.304427
O      3.615601     2.844562     3.789808
O     17.620243    16.338118    16.221689
O     26.061292    14.581461     8.988482
Si     9.738804    11.717196     1.308146
O     23.972723    41.065086    21.049920
O     26.310461    43.687765     9.065088
Na     9.505032    27.402880    19.237087
Si    44.547870    17.587013    34.877698
O     22.141144    19.757672    17.064627
Si     8.220843    27.994191    40.874921
Si    27.664478    31.793338    18.428192
Ca    15.465567     1.651997    11.514088
O     35.020368    44.743056    35.848454
O     29.613272    45.762994    17.331593
Ca     2.511038     7.915320     5.694210
P      2.714694    27.162739     0.139594
O      2.146825    44.905319    10.187386
O     18.121545    13.388997    20.866954
Na    28.498664    29.361048     2.250507
O     14.886036    38.176672    36.663489
O     10.937112     2.501595    26.678032
Si    46.252275    27.851200    41.470993
O     20.327982    18.392643    25.524556
Na    15.701902    22.904467     6.191622
O     25.765704    27.351737    39.839954
Na    23.516008     6.933570    44.435587
O      3.791118    29.863668    43.375835
O     22.719717    44.520302    22.360377
O     18.709529     8.714904    12.676742
Ca    39.758206     6.180811    15.042129
O     34.487309    22.475536    36.540403
O     17.728462    28.618282    12.344291
Si    35.288732    11.940375    38.730186
Na    30.475735    44.971445    10.626797
O     24.802111    13.726156     7.752802
Na    20.923883     5.099290    29.283330
O     19.746518    30.446707    38.658238
O      9.250790    12.393248    46.459325
Na    22.164921    19.239525    14.997576
O     45.858447    41.035853    36.252361
O     22.205626    19.560052    12.350301
O     42.540253    36.738664     2.261590
Na    24.322122    18.601545    16.452242
O      9.795136    16.059635     5.945018
O     22.751468    14.145533    16.236110
O     32.959448    27.219866    31.460934
Si    18.259553    42.761648    23.311627
O     41.548461    45.808338    34.329003
Si     4.132799    15.666996    33.272971
O     44.526159    22.041499    35.093995
Na    32.787156     5.662497    40.379833
Na     1.210359    41.212139    18.035442
O      7.520507     4.684801     2.690353
O     26.527992    27.554809     1.903098
Si    12.439879    32.650575    40.078901
P     23.246496    14.045455    22.495210
Si    10.922118    17.176755    17.120308
O     38.906691    26.305881     8.699305
O     32.789348    21.724320    17.581007
O      7.350200    18.012024    21.098059
O      1.214350    38.261227    23.309671
O     10.579486    29.751937    44.463246
O     21.062794    46.213503    42.898289
O     20.155468     4.581859    39.981399
Na    31.411399     0.741105     8.876719
Na     5.010061    33.628186     1.057595
O      7.847692    20.546990    12.380981
Na    35.145780    28.194746    35.555276
Ca    12.754449    33.372814    37.987821
O      5.286478    11.701653    37.848033
Na    30.752489    11.033093    10.934519
O     40.708921    35.324599    43.149127
Si    18.699417    31.765443     7.328878
O     45.099942     6.033584    46.241347
Ca    45.298229    29.989350    40.630967
Ca    33.077675    35.013434     7.571990
O     13.068966    35.227257    31.590526
O     39.396443    30.206236    26.995759
Si    20.564607    10.087489    19.305650
O     14.429854     6.097650    26.815906
Na    13.226122    42.224259    30.137075
Si    32.073863     6.079564    24.114212
O      6.359748    43.707142    41.898673
Ca     0.793384    42.887565    34.472298
Ca    35.672222     1.831536    13.153135
Na    14.307936     1.065669     0.585844
O     21.101452     7.205252    22.201266
Na    22.543350    36.243097    29.919137
O     12.044428    29.546829    43.009534
O     20.528594    37.675229    10.369512
Na    32.609130    33.681532    25.687802
Si     9.653159    19.767760     8.321403
Ca    36.824749    41.805683     8.373907
Ca    14.725694    35.397220    42.388648
O     37.243966    28.271783    36.183278
Si    20.068209    26.048789    30.975831
Na    32.357511    46.754776    43.193442
O     38.950884     3.205623     9.687061
O     20.650482     1.108710    22.329728
Na    41.936495    35.679629    19.354260
Si    36.655883    35.162907    37.977542
O      6.716370    10.781209    30.969302
Na    40.103813     5.053357    44.157388
Ca    43.533975     8.862366    45.336783
O      9.413808     9.191164    22.153824
Si     7.446744    36.135037    23.122250
Na    40.648045    45.602003    21.535023
Na    18.718357    14.434808    19.065642
O     41.599623    27.165162    40.506540
O     27.567255    20.730877    16.642882
O     43.872338     1.664891    24.727182
Na    13.775579    30.934633    13.061436
Na    10.073724    36.385041     1.577074
Si    12.407062    43.825347    11.203593
Si    31.218162    38.837985    10.501830
O      9.571811    35.853140    45.747350
Si    44.577717    11.269219     4.463459
Ca    14.286743     5.252529    32.755654
O     12.905935    32.535702    40.061004
Ca    16.459701    37.520591     8.157824
Na    40.821197     8.159775    17.935833
O     14.567851    25.183294    27.528765
O     32.960919    30.857029    31.301073
O      4.590726     7.552559     9.630323
O     31.957261    37.636567    20.897706
Si    43.770642     6.426090    44.843485
O     17.742992    21.469795    29.341268
Na    14.776644    45.171334    25.444826
O      6.760092    42.491253     6.824777
Na    10.947522    38.992299    26.336827
O     33.832226    31.389354    34.921829
Si    39.416911     1.771583    20.914015
O     46.044625     7.735579    22.490757
O     35.729070    36.815691    15.303080
O     42.228396    26.431191    17.301688
O     45.534601    30.396887    14.594929
Na    21.557367     9.229790    12.447364
O     43.086214    36.801961     7.719699
O      3.747247     0.549967    32.306687
Si    41.561104    41.962571    23.575600
O     30.791072    31.763438    37.396084
O     29.624464     0.239799     7.521346
O     12.256525    35.974736    42.302590
O      9.579229    12.529203    43.458668
O     46.337879    46.200718     0.862813
Si    33.305030    20.999143    29.430326
O     29.274836    33.665025    46.048150
Na    39.963819    11.393332    14.344060
O     21.664843    41.690564    23.456186
Ca    37.788610    29.613509    22.669869
Na    10.009200    34.463345    28.245412
Na    26.522052    46.616086    21.718130
Si    29.406202     5.057564     6.370863
O     42.075101    28.657264    21.255426
O     46.457580    18.849092     9.909046
O      7.341064    43.750234     1.649593
O     43.447102    20.041594    45.386337
Na    34.678540     1.386176    22.262604
Si    41.818999    22.199105     2.967177
O      5.137204    30.700749    10.624408
Ca    34.256933    40.749582    45.039959
Si    28.806549    35.543446     6.043319
O     44.094477    17.821119    36.418854
Si    40.267224    34.603422    37.529728
O     22.185516    40.315500    31.273138
O      3.793085    32.951723     5.329538
O     19.949647     3.212401    24.307603
Ca    15.589018    43.474078    36.755693
O     24.390842    44.839192    43.295677
Na     1.155669    31.021332    29.635100
O     21.253997     6.967997    26.310304
Si    46.732799    16.426929    29.663409
O     34.877175    46.573873    44.458690
O     43.686856    23.475744    18.005217
O      2.238010    41.095897    12.236921
O     39.720397    23.023629    38.760097
O     36.292470     5.320657     9.783720
O     16.789340    37.776173    17.516409
Si    46.420003    32.969236    27.612600
O     34.018441    26.312590    35.860422
O     31.023052    14.439600     3.744909
O     29.849148    11.355413    29.793104
O     35.880513    34.095263     2.491700
Si    45.381843    20.991088    36.878089
O     36.965145    36.878890    10.055321
Na    37.227941    13.428991    37.632521
O     37.119557    43.620270    37.964840
O     43.215349     7.854797    41.394762
O     20.666753    45.398336    29.439701
Ca    10.993282    33.185969     2.963027
O      8.379711     4.749461    10.397430
Ca    18.918292     7.924682     6.544527
Si     1.177475    34.719720    40.075408
O     16.758604    18.755011     7.645525
O      8.834920     9.831665     2.833789
Na    28.342610    29.056111    23.974725
Ca    30.640231    28.415780    28.673735
O     28.284643    16.031799    20.858595
O     19.185345    18.056907    46.030024
Si    20.768157    17.032522    43.274606
O     41.826270     7.236633    28.883944
Ca    40.032634    37.218774    23.893244
O      6.112182     1.416855    30.666095
O      9.119538    15.056029    25.916773
O     38.348474    44.402890    35.779268
Ca     5.144480    33.938257    41.771686
O     11.352644     1.418975    20.836262
Si    13.255420    13.733372    30.835027
O     17.667064    14.438867     8.753456
O     27.942971    21.548711    11.158235
Na     8.393927    15.707817    43.807607
O     28.232072    27.498764     6.140723
O     44.610857    14.278373    20.812891
O     14.805629    46.568540    41.935103
O      4.182728    46.674080    20.597656
O     33.478335    21.335579    13.862741
O     30.318365     1.148048    21.408376
O     24.689032    22.125118     1.407053
Na    41.039458    44.418407    36.429955
Na    18.686390    24.098795    42.170933
O     13.914023    13.164967    32.565230
Si    14.051301    26.093531     4.737421
Ca    28.234032    32.618724     6.101504
O     14.916028    27.964708    32.512081
Na    15.933483    43.924108    16.607988
Na    35.660936    14.477714    14.289594
O     39.949939     8.739817    21.360022
Ca     2.549004    44.112768    43.233388
Si    32.199017     4.242711    46.147776
Si    19.523219    10.317214    37.991120
Na    28.805663    37.444299    14.531453
O     36.421039    30.151368    24.167781
P     28.060745    39.668602     4.304030
O     40.181670    40.675033    45.173946
O     44.024400    44.497087    18.786355
O      6.220166    12.568386    45.506706
O     36.186432     5.351794    38.965421
Si    20.981135    14.705265    28.094532
O      8.033013    22.977700    44.687023
O     44.563688     5.820033    20.801020
O      3.370450    40.587939    32.315899
O      6.666938    37.033795    40.002842
Na    44.523268    38.099955    30.866675
Na     1.337404     5.713912     4.064329
O      0.378186    16.728941    29.008418
O     28.654759    22.780022    42.840080
Ca    39.508986    22.775020    32.887917
Si    32.403862     6.151515     9.616994
O      2.607612    19.722849    18.892678
O     21.583409    37.783846    38.428740
O     19.802312    40.689223    46.490476
O     35.455380    19.736369    30.464413
Ca    22.793922    34.189672    37.000687
O     37.330820    22.274815    35.259102
Si    37.158311    44.316370    12.095198
Ca    42.630403    33.225620    37.138496
O     17.197075    26.268288    14.603294
P     28.376004    29.302406    19.773082
Si    41.031317    31.117665     5.260446
Na    26.227744    32.050205     0.299769
Na    15.341945    42.095605    11.357787
P     45.263062    42.152255    45.318636
Ca    30.499112    37.350877     4.289513
O     26.817745    45.619038    45.001136
O      8.219443    32.297980    17.555285
O     19.934947     6.857329    30.751742
O     19.635248    32.440352     6.422884
Si    36.851099     4.513253     9.697971
O     13.850578    17.870481     1.888263
O     46.007224    11.074875     5.123004
O     39.197772    22.924314    46.564821
Na     0.016691    38.930596    16.428740
Si     2.523426    43.996229    18.651839
Si     7.425739    36.157729    40.199928
O      7.045210    39.487288     8.239695
O     10.542595    42.415250    22.319774
O     28.402439    23.445567    45.413719
O     30.964974    36.982360    43.704183
Na     6.812184    38.507072    24.585279
O      0.899844    40.559739    15.620146
O     11.527765    27.259558    43.674465
O      7.863766    22.509945    10.200449
O     39.399856    21.429459    14.223532
Ca     1.391521    12.262803     3.718617
O     26.866250    30.456534    19.495516
O     45.414102    36.471044    31.837196
O      3.422724    45.184427     4.678356
P     42.866348     0.188151    43.980510
Si    42.997955     7.593334    13.379431
O     37.000317    39.409158    21.998697
O     40.749790    45.065959    14.524450
O      8.091700    35.645280     5.202405
Na     6.195531    32.402120    18.410113
Si     1.749033     6.719901    43.470619
Na    16.731277    18.085873    28.880274
O     41.986428    34.216661    40.138951
O      8.747313    40.790853    12.861846
Ca    45.293701    36.371364    23.448215
Na     9.714318    27.839587    11.890142
O      0.242228     0.306127    14.060056
O     41.710913    43.497134     9.384139
O      3.480598    26.656286     1.718211
O     20.073369    41.725333    15.071262
O     17.920122    12.613587    33.906329
O      3.750308     5.955474    37.580936
O     10.481611    34.131471    46.108671
O      4.134387     8.943326    19.640949
O     23.512425    43.949036    18.811644
O     14.363862    42.118209     1.553532
Si    36.639267     3.860279    22.772341
O     38.260095    25.372678     1.545222
Si    31.985213     0.631695    21.440509
Ca     5.926251    19.203590    44.933976
Si     2.676273    16.290345    37.158436
O     11.514551    14.393225    22.247977
O     40.877426    13.933482    37.376473
Si    10.529292    37.042504    39.918708
O     42.940261    26.238795     1.779625
Na     9.386349    34.519951    19.872850
Si    20.219011    22.127630    46.562602
O     21.236365    36.981137    20.599804
Na    24.383010    11.241290    17.622544
O     34.036218    38.940361    36.655743
O     27.358451     1.776676     5.965479
Si     1.967301     7.288375    32.171177
O      8.638703    11.952063    22.601274
Ca    29.749068     5.566166    30.916067
Ca    22.543355     3.802907     9.567825
Na     0.091337    22.183494    41.962361
O     15.682552    34.964134    29.644487
Ca     9.406611    17.935354    10.839300
O     20.314140    14.565817    23.319143
O     14.602132    41.265366     8.201357
Ca    32.373481    27.004026    46.580388
Na     8.744248    44.896302     0.058293
O     17.009278    35.526946    12.694915
O     44.058945    24.431526    26.125618
O     32.829014    21.150540    11.803699
Si    41.726444     6.685274    40.988935
Si    29.782648    19.098738    35.061359
O     44.700551     6.495750     9.228117
Na    32.228897    25.179101     6.541965
O     27.210358    16.567691    12.684273
O     30.891232    37.091338    18.519855
Na    37.356290     6.728110    38.359555
Na    38.013516    33.477847    30.618629
Ca    14.483489     4.462607    19.371432
Na    13.250757    46.713642    22.875474
Na    42.734535    25.525911     6.270342
O      2.955777    42.473599     6.013813
O      0.548681    21.415308    35.820628
Si    25.377555    26.010499    23.746997
O     42.693772     0.349270    44.116322
O     18.159220    26.352808    44.012875
O     10.023246    29.503369    15.286780
O     19.105585    30.211890    16.276301
O     13.524278     4.568204     0.290820
O     34.753102     9.867196    41.889419
Na     2.333473    19.741387    26.833299
O     28.889558     3.170776    29.225817
Si    14.111243    41.040020     1.161300
O      2.666962    14.387701    36.768649
P     35.082734     6.103193    37.712136
O     12.921481    41.834183    20.760499
O      5.896832    21.315504    28.677910
O     34.041008    13.297955    38.469122
Ca    27.633325    39.987756    29.878355
O     37.538827     8.891340    41.146441
Na    39.170493    21.453624    40.639868
Na     8.267737    17.342238    23.595814
Si    29.892068    26.850370     6.880235
Na    39.211700    46.312309    17.461730
O     10.531166    46.352087    10.074784
Na     4.381162    36.594607    11.634976
O     11.590266    43.891145    37.176070
O     46.142813    38.924733    41.617225
O      9.583606    25.259047     3.403763
Si    33.302900    26.227683    23.090890
O     13.691406    10.569335    13.802314
Si    45.414457    46.019655    13.569336
Ca    37.457447    10.390672    39.872023
Si    41.039914    27.766765    16.798357
Na     8.471075    12.878093    39.359607
Na    12.826573    24.549773    39.059225
Na    39.980179    34.476045    10.099205
Si    17.670098    33.598323    41.610495
Na    14.896403     1.788431    31.498394
Na    45.119405    25.770454    41.147965
Ca    25.845644     7.406997    38.029030
Ca    43.909644     4.287867    25.277220
O     11.973797    39.722570    30.633950
Na    28.357925     2.867504     4.319045
O      1.568360    17.046895     9.385194
P      1.639385    17.812088     9.172420
Na    29.230842    35.920504    11.637577
O     12.097177     3.157331    22.330486
Si    24.423807     4.801852    38.999286
O     39.615767    14.617784    24.411995
O     31.860712    15.806666    34.076940
O     31.059871    32.089352    45.222193
O      2.337114    28.902477    38.718728
Si    30.465960    38.422712     7.830699
Si     4.536519    30.862927    44.555625
Si     2.344985    10.937067    29.151235
O     13.057186    15.259068     9.021118
O     44.581004    20.297129    25.276569
O     21.408443    45.022283    27.551232
O     22.644129    13.908096    20.754396
Na     5.787572    37.988073    37.971223
O     37.844173    46.163050    38.276813
O     28.368240    11.512869    19.865636
O     27.876167    39.419565     4.377280
O     24.276607    25.312567    29.055492
O      0.664568    43.931810    39.193579
O     23.109502    26.820408    41.073508
O     17.545155     7.298746    10.231249
Na    12.497337    37.302418    38.283475
Na    17.278921    16.375017    10.354621
O      1.835016    36.432269    32.194756
O     30.111352    19.085912    17.595785
O      3.722331    17.358195    23.682616
O     31.545833    32.009729    34.390635
O     35.721509    16.650810    40.431939
O      5.687923    32.430282    15.940380
O      7.043646    42.620854    19.517232
Na    10.420636    23.275374    41.425323
O     46.116221    27.594739    40.579137
O      5.973804    11.811482    40.988230
O     32.016268    15.473429    43.060082
O     32.634440    18.886251    29.049567
O     16.840692    44.592708    40.156061
Si     7.317991    24.897560    42.795220
O     12.788832    11.998039    26.530541
Si     5.204286    19.049690    43.101956
O      1.956425    14.796636    11.213831
Si    32.675802    44.616382    28.375487
O     16.805895    38.781184    24.178039
O     46.071315    29.413280    18.571584
O      8.184948    10.839585     5.533677
Na     7.925160    40.709573    31.063914
O     33.336611    38.306773    41.750096
Ca    22.041487    19.575415    45.136876
Ca    43.370846    28.369971    23.269240
O      5.466571     0.397297    23.129076
O      1.270559    18.685267    43.067438
Na    12.538812    14.059133    37.306555
Si    10.737517     2.147519     6.914486
O      6.393350    35.838200    11.816949
O     43.440959     0.266620    30.309918
O     33.352097    35.808998    25.980247
Si    46.341740    45.031087     1.634303
Ca    10.077250    36.079641    18.727887
Si     1.001919    45.030496    22.750887
O     14.936152     2.270109    18.007754
O     19.103842     3.914446    31.386073
O      9.258370     8.734544    38.796447
O     29.235547    44.406115    12.963964
Si    14.108878    27.572223    18.763528
Ca    22.627926     4.370651    42.956116
Na    14.250456    22.819415     2.654549
Na     5.902852    36.045981    21.043894
O     41.755015    11.680835     1.938416
O     10.922210    11.183530     1.771597
O     38.967797     9.366430    18.713579
O     41.496752    24.468617    29.964597
Na    23.212145    22.856601    46.493288
Si     4.269574    30.854967    19.644634
P     39.322271    42.077630    20.371830
O     10.404164    25.286464    36.776197
O     40.517157    28.299470    10.110370
O     20.441896    43.672405    28.419823
Na    37.284443     4.958866    26.783748
O     38.000036    11.003826    15.620690
O     18.893587     8.966558     8.590567
Na    45.812802    30.434623    25.481409
Si     1.155049    18.559143    40.880988
O     20.028445    39.521687    10.284861
O     15.827435    15.742182     7.525385
Na    22.139287    22.345739    41.567401
Na     7.573827     1.282300    26.006425
O     14.316687    18.257794    23.909962
O      6.814687    34.394090    40.233865
O     10.506481    34.932612     4.095609
Na    30.273063    41.021190     2.919465
Si    39.518010    15.902004    39.913206
O      7.249803    34.003770    19.814873
Na    36.170682     3.186621     1.920694
Ca    45.345760    36.770923    16.789559
O      9.034459     7.201683    22.407958
Ca    42.751529    33.225925     3.541186
O     10.016391    16.990548    18.760832
O      5.939232    33.171417     3.147149
Ca     4.756747    28.395668     0.816996
O     41.038245    25.142461     9.839321
Na    29.415212    13.341593    19.990651
O     45.329877    34.407980    24.097377
O     43.755589     3.943784    31.435767
O     31.607044    28.930269    13.486880
O     41.818521     6.374293    41.062623
O     10.194521    22.601049    37.533544
P     11.842133     2.400915     9.942199
Na    36.706183    38.563278    28.033009
O     26.496113    32.370370    31.286847
O     30.040297    35.639391    36.897811
O     41.197966    24.130945     3.249558
Si     6.512207    13.310797    31.681939
Na    15.021511    28.154167    10.805240
O     13.862579    12.361120    29.689369
O     26.995899    17.674547    28.698055
O     41.190691    24.465683    40.273896
O     19.189237     5.649271    28.573753
O     18.572285    38.346965    35.928555
O     29.338967     9.315849    18.100005
O     30.211171    22.784968    12.145287
O     18.552309    19.374918     5.805843
O     12.716202    15.145751    29.704487
O     18.872724    37.217109     9.408923
Na    32.257115     7.984100    15.665801
Na    20.895169     7.860759    17.308658
O     43.943693    46.223221    26.115577
P     40.014553    26.629935    10.026382
O     39.779943    41.374091    11.181120
Si    29.611317    16.258018    30.926754
Si     3.202746     2.506222     0.010136
O      9.867394    41.887159     0.967148
O     25.726227    45.887956     0.911329
O     24.386219    19.773533    25.660205
O     20.927816    36.119877    46.540373
Na     0.352651    31.133255    20.247494
O     43.239132    34.689654    11.626547
O     37.042470    20.221141    46.422341
O     26.888178     9.161260    15.499898
Ca    31.541627    25.595220    37.747770
Ca    33.642507    13.075998    30.103160
O     25.263559    34.242315    29.861662
O     39.270330    17.596702     5.386158
Na    36.176382    16.918882    46.422071
O     18.503201     1.430132    18.702608
O     21.695457    19.329416    25.019099
P     30.288150    12.720024     3.231683
O     35.792259    32.949188    34.385129
O     21.798879    23.991207    37.497879
O     23.331015    11.296271    14.978805
O     35.167576    29.388364    30.472565
Si    30.496128    31.469740    20.284372
O     27.631788    21.481721     4.765887
O     31.633021    22.910004    27.345611
Na    26.625615    33.503677    43.312455
O     34.584065    20.297463    27.279088
O     36.729375    33.159051    37.877362
Na    13.887800     9.260934     7.689018
Ca    33.208412    17.948664    40.000613
O     14.676291    26.968419    30.102965
Ca    20.679427    12.462483    23.671088
Si     2.356544    43.400377     4.460396
Ca    45.519010     5.934961    36.013170
O     40.530701    35.646776     0.761279
Si    17.652223    21.814609     8.804009
O     31.630223    22.194626    38.208297
Si    11.538639    39.387630    29.928704
Ca    22.146446    25.856391    38.163503
O     26.978375    11.182533    30.602195
Si    10.778885    13.844794    22.921227
Si     0.163371    36.825160    24.632477
Ca    39.087732    23.511440     2.818882
O     23.037071    18.751472    11.645229
Na    35.139404     8.699647    45.877263
O     16.209468     8.914034    30.260929
O     41.901625    35.535865    37.495674
Si    11.657585    11.584141     7.432445
Si    45.204746    23.463272     6.687955
Si    42.013471    35.660969    12.651976
Ca     9.236359    37.748415    15.704769
O     29.686957    40.353144     5.441886
O     23.253656    45.237855    24.920739
O     21.030213    10.470046    26.867590
O     14.443495    42.990089    14.182793
Si    33.736663    20.995749    16.049958
O      5.774049    44.474785     8.821274
Na    19.656530    28.207420    38.824275
O     42.636074    21.405405    34.931312
O     23.452564    33.724981    42.286746
Na     2.765731    16.309003    43.082476
Na    33.141452     4.913657    35.200703
O     25.404519    36.461768    16.097330
Na    41.645729     6.294614    23.792675
Na    14.650611    22.866267    43.796859
O     19.453352     9.331521    39.855096
Si    34.716933    36.135486    26.272490
O     25.949471    23.122470     2.665610
O     27.165695    19.001712    19.405512
Si    19.298573     6.641254    26.931371
Si    24.368640    22.990695    24.791795
Si    13.773348    26.171693    29.229882
Si    40.732487     5.195862    34.003743
Na     0.867250    27.091692    22.361123
O     29.903271    13.328940     1.573159
Si     9.285133    35.059570     5.505692
O     35.886839     5.272042    44.227190
O     24.585986    22.772048    33.073996
Na    15.648529     6.359807     7.756292
P     23.190399    19.329100    11.753371
Si    10.475860    26.176491     3.073115
O     27.753357     8.468730     6.244370
P     35.589716    37.793575    14.864375
Ca    25.448640     3.337433    20.822906
Si     1.615904    18.611649    43.939972
O     15.812381    13.592903     6.273848
Si    23.909333    40.496889    21.601117
O     41.124607    15.876112    26.646381
O     11.464318    18.980304    16.707330
O      9.778886    37.891622    18.029802
O     14.443994    24.660311     5.878805
O     26.247084    15.530499     0.581063
O      3.568140    17.209612    37.154086
Na     3.305148    19.766527    21.138359
O     12.134412     3.327173    10.991741
Na    35.062084    36.602422    18.643499
Si    43.338438     1.160218    25.770511
Ca    26.896301    13.029472    27.504646
O      0.164470    31.137530    27.827717
Si     7.696519     7.772592    39.024890
Na     2.956819     7.568069    29.347698
O      5.276222    22.547406    12.234064
O     31.351882     6.315374    12.390247
Si    41.789289    34.902120    46.236539
O      5.920944    41.809619    39.312944
O     44.937079    38.370579    22.749566
O     24.428714    23.886750    25.730125
Na     6.697315    34.768847    45.170228
Si    38.505798    14.433865     6.787797
O      9.774290    24.534453    39.315769
Na     6.321184     9.997004    23.551228
Si    18.339373    19.431349     0.224372
O      5.586004    17.044619    43.090309
Si    29.785062    45.662115    28.828961
O     25.733613     6.624540    34.828981
Si    34.746088    27.492895    30.801723
O     32.534075    40.430161     2.989970
O      1.660374    10.877798    27.281861
O     31.639586    28.879744     9.728153
O     24.780003    19.390859    31.021873
O     38.866055    25.722042    38.605627
O      6.607082     9.326878    21.611046
Na    11.420625    18.272166    14.604012
O     42.886076    38.181118    41.248100
O     44.974709    33.208697    41.143096
O     24.020822    46.618749    46.250651
O     43.250691     6.166646     6.301035
Ca    42.187154    35.325666    24.529006
Si     2.117927     7.869792     2.298350
Ca    45.818997    36.552569    21.532686
Si    31.307398    30.342169    31.451932
O      1.752093     1.506167     0.064830
O     43.269770    43.138077    36.977450
Na    37.892833    27.062394     0.069364
P     26.147615     7.283911    35.230809
O     21.160401    17.034399    19.001055
O     23.255227    12.550086    42.191228
Na     4.444921     8.317885    36.724001
O     25.649121     9.379290     7.871246
Si     8.180109    41.817780    22.177704
O     28.705914    45.681314     1.648091
Si    14.400466    44.993658    42.419500
Ca    18.017466    22.706955    23.645035
Si    37.266784    36.402657    29.981586
Na    17.670397    28.399773    41.742983
O     22.955852    43.499547     1.023300
Na    29.572978    29.178297     6.798754
P     23.971123    16.281697    19.807872
O     17.657151    41.826447     0.170068
O     25.684880    28.910391    12.391067
Si    22.069372     5.686062     6.317008
O     27.749708    23.737679    19.308077
O     42.631062    38.734090     0.080131
O      0.290445    12.324678    12.939160
O     25.462482     7.730615    35.833747
Na    44.153001    36.211917    46.660431
Si    10.002494    27.309457     9.139445
Si     8.739187    21.419463    13.549295
Si    21.260325    10.689728    29.676056
Na    45.231711    13.698584     7.382845
O     34.030445    39.748577    23.324424
O     37.087092    13.216292     7.052333
O      5.087601    12.828291    13.137046
O     38.895841    19.798656    13.115862
O     23.318954    41.759150    36.886675
Na    46.452196     3.756414    38.101319
Na    17.384216     0.268642     5.305066
Na     6.260487     2.468785    41.199939
O     10.242959    18.098824    20.334036
Si     4.578169    28.643999    10.697249
Si     6.278245    16.827505     3.406610
O     24.248281    20.007112    46.209457
O      3.278021     8.987215     1.057690
O      6.320335     3.490601    20.528347
O     18.121137    22.263779    13.360795
O     27.583403     6.664373     3.915144
Na    28.194739    14.512332    34.060899
Ca    20.523405    20.611527    26.973262
Si    34.461927    29.301718    39.978111
O     40.628434    32.670648     6.191812
O      2.564437    45.697431    14.157904
Si    45.673835    14.859422    21.547847
O     14.858722    24.093001    25.933022
O     11.035079    32.677738    29.173374
O     46.031049    21.902283    22.964121
Na     8.447930    38.816712    26.681784
O     41.525567     5.749660    42.527860
O     15.295104     4.786069     2.836029
Si    34.698619     0.993719    45.919063
O      4.566673    29.313709    18.598922
Ca    36.700822    20.454461    31.850650
O     26.685190    45.756770    15.896295
O     16.976874    12.692072    29.924387
Na    45.760320     0.781309    26.431273
O     26.232846    31.211374    29.548092
O     15.083042    10.556036     1.821610
Na    23.155565     1.479067    16.780154
O     33.099680     9.388863     3.472641
Si    20.256652    19.943309    11.898668
O     46.126471    26.752349    10.997599
O     28.485323     5.876977     5.560569
Ca    14.635434    37.836420    39.228289
O     46.468945    32.852306    21.243423
Na    29.943661    35.381544    21.695177
Si     7.754610    11.763940     7.175856
Si    24.750459    45.361718    45.110649
Si    18.726413    34.595276    12.186550
O     18.416724     3.908107    17.129612
O     25.009442    24.500897    23.945973
O     36.828012    24.816222    45.900073
Si    40.000516    11.180048     2.482828
O     22.634564    20.769654    36.174115
O     25.968808    15.929968    26.390986
O      8.376070    30.496515    15.622251
Ca    43.632484    25.269099    44.500775
O     32.627240     4.570803     0.123658
Ca     5.598292    45.578384    21.634489
O     18.110445    12.393165    23.620521
O     43.425373    32.629613    43.207708
Si    39.452298    42.232246    45.854625
O     32.395283    14.153188    40.674444
Ca    21.403027    17.015499    23.458216
O     25.198830    28.786570    14.151390
O     36.912886    45.939841     4.390669
Si    10.821936     1.718861    25.902976
O     44.920445    31.315880    22.977660
O     41.658580    23.409172    36.952279
Na    10.927279    43.451532    28.454823
Na    20.712999     2.989620    34.121861
Ca     6.409827    15.646867    26.613300
O     20.098164    26.345490     6.520751
Na    21.330920    30.242819    13.148368
O     44.313595     0.059722    42.718954
Na    15.563703    44.368603    31.506060
O     40.578278    37.892131    10.418899
O      5.490993    20.571997    10.311567
O     34.825551    25.346903    35.181848
Na    34.534499    15.036328     1.661873
Na     2.592066    28.193434    17.902719
Si    18.046988    29.890963    12.519276
O     30.661450     5.878307    42.613868
Ca    41.003604    23.922767    46.505381
O     39.651647    23.898592     5.552482
P      6.678291     4.420616    31.815189
O     46.486402    18.130081    39.799319
O     35.512012     6.304786     0.347034
O     18.302638    21.482599     8.441458
Na     3.534365    37.176711    22.344111
Si    37.620836    46.514689    13.850323
O      7.879816    37.944957    11.946757
Na    21.312266    28.264748    17.846176
O      7.552725    22.183483     0.635034
O     26.891761    22.756639    31.161143
O     14.478396    20.296144    12.476467
Na     7.386319     6.126070    27.745623
O     29.217733    29.994725    20.236967
O      1.394937    32.898418    40.413584
O     44.964626     4.286517     5.791748
O     36.657865    27.039495    31.195224
Na    16.452380    20.920338    38.891850
O     44.549545     1.714974    33.881016
O     37.945146    15.551830    32.192770
Ca    45.414456    36.468607     2.425004
O     16.329879    32.576361     1.590332
O      7.751934    44.517634     8.727143
Si    15.794579    28.303493    30.878443
O      5.145086    23.428222     8.877666
O      0.494689     7.174083    30.930425
O     21.364031     6.803208     6.496041
O     10.958873    44.600006    10.522166
Na    28.842440    15.396502     2.090728
O     44.660441    22.271056     7.806491
O     41.566302    10.642347    27.430881
O      2.525898    16.086438    34.365927
Na    42.435735    44.644144    37.996850
O     25.172630    38.117336     1.737565
O     40.775493    23.874018    34.205464
O     34.986478     3.352659    21.949813
Ca    23.179640    24.700576    40.863996
O      7.426957    14.092197    30.280748
O     27.333720    28.237417     4.500701
Na    21.983449     9.220760    45.422770
Si    21.373343    18.062359    16.888087
O     18.880892    11.460008    38.335229
Na    18.135896    43.320371    29.078115
O     20.993560     4.049128     6.712282
O     17.870104    35.056542    42.280195
O     40.838117     5.726143    32.652764
Na    22.457268    20.084304    30.079169
O     23.124427    17.081955    25.456109
O     25.359488     7.055926    15.029345
P      5.186643    22.051072    28.676870
Na     2.815378    32.126931    43.275284
Si    37.495972    12.711092    15.137276
O     24.790704    29.280429     0.473960
O      2.417560    19.882029    14.480840
Na    42.284777    27.454587     8.793574
O     31.053537    32.719470    31.061702
Ca    17.656623    38.746238     0.755169
O     16.999430    28.115038    30.923590
Na    32.584906    18.606915    11.317233
Na    38.836341    16.103331    25.933826
O     31.854294    19.147810    38.714249
O     23.880484     5.307317     7.222696
O      1.616949    15.844557    38.754688
Na    19.723331     9.696368    42.976224
O     28.248029    29.877996    18.901802
O     29.760795    20.174387    34.973606
O     33.997164    12.843990    20.542600
O     45.252450    18.158351    33.411416
Si    21.446677    30.785857    25.964662
O     31.594119    14.436276    38.009200
O     17.586337    22.188205    40.207727
O      0.267417    18.312760    33.315092
O      9.124850     0.249533    44.645937
O      7.133133    10.053487    17.596954
O      3.029916    42.467242    34.228494
Si    23.120417     5.477061    12.312200
Si    38.289028    18.818428    46.453553
O     10.345478    36.844692    26.980674
O     18.067658    36.701202     6.716396
O     12.888469     6.563462    25.020867
Na    31.335453    31.229463     3.724161
O     41.560237    42.166599    23.153359
O      7.115075    16.863190     4.319022
O      6.496076    42.243652    21.244645
O     42.738492    36.240867    45.122981
Na     3.173938    38.365207     5.724256
Na    43.887383    14.089051    32.414017
O     36.238822    39.564016    34.672374
Na    39.311975     5.458109    10.525429
Na     6.186801    12.002023    17.631904
Ca    19.500084    10.508564     3.814484
Na    30.558788    31.570943    41.563497
O      7.202772    29.863245     6.171109
O     10.319627    19.647086     9.969523
Na     9.839601    12.119088    31.400167
O      7.241310    41.003332     2.505471
Na    28.677933     8.246495    27.913190
O      2.536381    28.692423     1.075292
O     38.703630    34.765061    20.347395
Ca    31.682543    29.118197    36.585572
O     33.108523    43.957583    36.908293
O     30.627000    31.885839     0.345371
Si     2.300367    28.553711    37.700022
Si     6.728268    40.902310    38.005527
O     41.234068    29.200542    25.336187
Si    27.411538    30.126488     3.635061
O     26.125828    30.768519    23.344551
Na     8.768721     3.049012    23.318081
O      9.408216    34.035772    25.771263
Ca    38.458690     6.028612    40.731649
O     24.015417     8.202284     6.018653
O      2.237157    26.256706     6.308969
O     43.126709    33.976927     0.529070
O     43.055701    21.262435    10.037110
O     11.671608    15.505748     8.385670
Si    13.732870    31.091758    39.191037
Si    26.266406    25.782148    39.066321
Na    33.970151     7.079378     7.515152
Si     3.794624    21.295650    19.263412
Na    18.316435    45.355872    38.338701
O     37.423490    24.796961    28.697238
O      3.635897    26.798140     8.298275
O     22.692627    17.763865    43.574467
O      9.962514    40.328503    30.159334
Si    34.258801     1.576814    26.793678
O     16.168765    18.025433    11.742213
O     16.621265     8.228933     7.471005
O     31.004760    26.779130     8.003795
O     40.012571    11.608128     3.815498
Na    10.985693     8.700178    14.445113
Na    21.230109    23.221187    31.597217
Si    26.654812    18.533806    20.790195
Na    16.690503     3.266902     9.197829
O     42.779522    27.302598    31.531705
O     24.911194    10.302072     0.380928
O      0.592978     4.547861    35.549412
O      9.926257    25.482528     8.634628
O     33.254092     5.099080    22.915298
Na    28.874925    32.245193    39.564202
Si    26.547956    32.866705    30.429268
O     45.065241    38.834407     2.169982
Si    17.037262     8.152889    21.846864
O      3.812576    29.531820    36.463890
Na    22.012460    38.173960     8.880067
Na     4.528578    43.853480     2.872029
O     19.469876     1.313743    30.003371
Si    16.849765     4.300111     5.642929
Na    20.927620    45.995298    19.027642
Si    18.516977    43.251062    14.842849
Si    43.035483    27.026194     0.035965
Ca     6.092337     4.135849    24.786472
P     36.339599     4.315588    30.799151
O     26.150219    22.562749    44.409980
Ca    33.334200     2.535276    23.318509
O      6.449763    42.104529    14.119158
O     33.003235    27.235789    24.656031
Na    36.817937     5.213776    12.491357
O      7.029117    18.913051     2.975225
O     16.459439     7.267460     4.157174
O     18.709138     5.177315    25.799579
Na    45.147124    18.193942    42.679552
O     39.363807    42.724000    18.993964
Si    44.903502     8.385681     9.400911
O      3.425148    37.555431    44.321374
O     36.406331    38.669816    24.764538
Na    37.023042     4.793806    35.917246
O     11.122960    39.678543     1.469126
Na    40.996151    29.575183    32.200945
O     40.121386    40.715343    24.416993
O     42.389571    39.909364     2.604454
Ca    23.595849    25.900564    31.849833
O      3.520982    34.528091     2.244243
O     15.109836    34.495401    36.217896
O     40.088226    39.033341    16.943600
O     16.933156    32.481232     7.323863
Si    40.285419     6.183863    28.653016
O      7.989063    45.583805     6.992307
Ca    44.360128    29.981225     3.021088
O     22.793322     3.804219    34.847167
Ca     2.108033    23.091347    27.109283
Ca     7.396018    16.315364    34.240564
O     44.149851     2.344099    27.110737
Ca    17.715968     0.710431     1.059639
O     15.971674    32.438134    46.153361
O     12.925782     6.394648    12.896425
Si     5.825882    38.862789     6.929285
O     36.464076     0.998633    46.612218
O     37.817352    31.287031    35.422006
O     44.132886    35.097461    17.904287
O     18.893926    19.166033    31.239870
Na    26.087775    28.554631    45.526420
O     14.931189     8.027766     6.466313
O     10.528610    21.958782    12.819087
O     23.020025    10.985071     0.969289
O     36.282976    19.284089    14.175135
Ca    32.252890    31.279300    14.721991
Si    21.858837    17.584207     9.867595
Na    19.368366    42.544671    18.614010
O      5.756854    10.954822    11.256885
O     25.963440    10.756723    43.341803
O     17.565316     5.547218    41.098973
Si    44.502221     5.645149    39.945773
Si     4.029913     0.907531    22.165916
O     21.439264    42.633231    25.891547
Si     4.738808    42.363652    40.352669
O     18.477939     2.628256    41.660286
Ca     9.484131    28.405468    24.754012
Si     0.599828    10.953759     6.220754
O     22.504586     6.250360    10.413194
O     24.565937     9.818818    44.099009
O     37.474615     4.475653     0.479235
O     27.446246    14.872452    28.530721
O     27.821351    18.651504    34.757051
Si     4.631460     7.244336    24.982173
O     22.702350    33.250910     9.396821
O     18.255818    10.547223    36.448963
O     40.230408    13.711162     7.403707
O     38.710024    45.325373    33.231163
Ca    13.131133    40.332299    26.614618
O     37.055403     3.852935     9.950899
Na    38.353837    32.655086    17.048810
Si     4.744511    40.376445     0.373087
O      1.405748    12.425066     6.813216
O      6.367000     8.410862    37.850669
O      8.376146    20.244091    30.500424
O     14.759295    44.775676    42.320893
O     18.588858    38.807115    17.663171
O     31.749752    45.673769    12.506826
O     29.670857    31.425537    45.640906
Na     3.109998    12.319426    18.223414
O      3.612436    42.787821    39.717348
O     39.431722     7.588091    10.947972
O     23.368558    45.805984    31.701861
O     42.952517    31.663802     5.219609
Si    35.268460    23.592586    35.225976
Si    26.385670    45.991179     1.460311
O     37.260453     4.669665    30.704686
Si    34.159056    35.581740    16.747050
O      7.336438    40.640373    36.644000
Na    21.758136    38.503238     3.168792
Na    38.204896    31.864205    20.921976
Na     1.292513    42.127940    38.571736
O      0.167568    37.977628    30.400871
O      4.445228     8.966026    24.284001
Ca    40.190641    40.637262    26.485341
Si    15.146380    42.389687    24.682024
O     27.046616     4.922116    30.353211
Na     3.503249    45.013436    34.355468
Si    18.791491    25.524974    34.033029
Si    18.017686    18.765716     6.178896
O     16.338309    38.956857    39.423552
Ca    28.813784     7.563656    19.568462
O     34.161919     2.706947    45.318761
Si    36.202327    14.506907    32.063445
Na     2.679851    11.385329    22.585840
O     39.106664    27.273259    25.000978
O     44.893139     8.074083    13.696344
O     40.998855    34.191014    15.878286
Si    46.097825    25.978330    39.501017
O      2.433805    36.287160    10.465434
Si    43.480961    37.711372    21.740773
O     22.765941     8.579475    23.035284
Si    39.055277    45.265864    39.399635
Si    46.041998    19.702907    24.185303
Na    40.505459    37.950392    46.234187
O     36.784296     5.085276    24.335182
O      7.389382     8.718308    25.522944
O      0.267297    43.297953    22.615601
Ca     7.242507    33.636771     4.753700
O      1.156979     3.549595    24.048901
O     28.305051    35.003894     5.009416
O     24.330363    45.003792    39.382413
O     28.890026    16.931304    31.695707
O     43.245607    21.615975    25.291470
O     18.699768    45.500168    34.484527
Si    14.766130    41.761616    27.889752
O      4.012436    40.763347    15.071792
O     40.470253    14.036285    39.078707
O     17.742982    40.580825    37.647552
Ca    26.502940    42.433683    46.267990
Si    22.366248    35.272373    42.342122
O     41.205020    33.901210    45.537917
Na    21.574023    28.290842    11.491211
O     45.067224    26.997093    30.943141
O     35.765939    12.810469    39.329802
Na    17.515103     7.885495    40.913466
O     24.717480    22.527772    17.062672
O     25.075353    34.011591    25.852431
O      3.268398    21.614840    28.628889
O     13.700163     4.499512    43.855703
O     40.988125    16.204888     0.441653
Na    20.293298     6.910782    35.394989
Na    36.486585    39.297776    19.954506
O     42.010439     4.122662    34.935132
O      8.753487     5.368079    46.602107
O     33.134795    33.494383    32.680595
O     14.431915    18.825462    33.554084
O      0.763142    28.697061    36.470000
Na    31.648048    45.659940    25.203749
O     36.834270    35.443084    39.794762
O     46.048419    21.737984    38.414629
Ca    45.999826    41.991152     5.445272
Si    10.857109    12.112620    27.115082
Ca     6.304694    22.765395    41.116816
O     14.295686     3.985965    25.299983
O     37.020977    33.259921    21.822816
Si     1.157324     1.026224     0.257392
Si     2.147176    18.824353    15.383021
O     43.088337    39.993023    36.980490
O     41.064883    14.570237    31.886767
O     43.971578    12.370253     2.636925
Na    31.091576     4.797201    20.665721
Na     7.488222    46.683002     9.928000
O     19.390805    17.997036    35.570883
O     21.730799    12.902234    13.746220
Si    28.097888    19.136262    17.535475
O     28.010547    35.221732     7.696668
O     15.396239    18.366332    31.066290
O     17.293956     1.972562     7.435023
O     17.230666    29.733090    10.823574
O     34.125125     8.996512    14.465648
O     34.236972     7.525593    38.257063
Ca    41.117727    38.036606     7.963795
Ca    11.692710     6.809674    26.565916
O     44.855235     1.193671    36.340773
Si    40.092645    42.437824     9.452361
O     35.674213     0.817561     6.800548
O     23.893305     8.320304    38.548809
Si    34.015051    26.429513    35.806121
Na    15.676036     4.877196    41.590313
Si     8.179314     4.234349     8.558320
Ca     4.202408    31.859422    11.986844
O     26.662319    30.828551     1.982331
Ca     3.681461    25.950657    27.809637
O     21.311607    36.397023     3.063287
O     22.602462     6.081851     4.454465
Ca     6.716888    11.450192     1.382196
Si     4.351687    34.015276     3.894809
Ca    26.304698    14.574223    24.216155
O     43.459041    14.685691    25.643841
Na     4.399127    25.072569     8.310384
O     44.579578    35.488570    43.643446
Na     3.853357     8.692214    12.715810
Na    34.603074    45.274944    26.772703
Ca    18.154447    28.775229    33.082030
O     20.440926    38.379367    32.374307
Na    31.003665    34.339835    38.466498
Na    28.711590    31.485596    31.736777
Si    15.641335    23.237657    24.912024
Na    14.183954    27.522437    14.811176
O     28.250695    15.626266    29.828483
O     32.605762    43.986615    12.259350
Na    34.461612    40.505772    25.699806
O     30.186521    30.147138    29.886234
O     29.504561    15.313186    35.652686
O     34.580258    43.226031    15.300884
Si    15.588973    39.903889    22.601054
Si    43.320534    44.164445    18.489895
O     18.144970    33.830885    10.343357
Na    17.555023    22.320749     1.346799
Ca    12.305750    38.290490    34.753578
O     34.233791    37.344051    22.393346
O     33.476481     7.959025    32.915862
O     17.428233     1.483796    33.911156
O     26.820735    24.291799     5.198274
O     30.982931    16.440328     8.792318
O     34.490564     0.024147    28.043855
Si    19.045842    20.103038    29.636774
Na     8.465688    14.114525    20.945848
Si    12.391436    45.121968    36.311292
O     12.144065    13.459602    11.811793
Si    31.336808    45.035517    13.257769
O     16.672960    11.575083     3.627836
O      6.917907    44.731930    17.147811
O     16.098392     5.145857     5.594233
O     19.110261    34.895557    26.729719
Na    22.327022    29.770974    40.537916
Ca    30.702621    46.152577    32.006158
O     14.355854    29.419707    18.537595
O     10.205384    13.704641    24.694456
O     15.445575    15.219460    22.078766
Si    41.120533    37.960076    16.713320
Si    27.333502    16.117069    27.695172
O     20.311166     4.945022    42.962867
O     27.593619    35.964227    36.422769
O     16.705051    34.267653    40.134249
Si    33.332156    44.697128    36.596389
Na    42.549083    17.172358     8.073929
O     22.264619    23.548460    34.613690
O      2.505007     8.184293    42.500609
O      6.755811    27.978034    11.662151
O     33.564607    39.151017     0.918469
O     38.775029    44.432677    16.558186
Ca    37.178467    23.347411     7.788762
Na    34.684694     2.998514    11.753488
Na    24.328951    41.021195    15.549431
O      0.625030    35.261368    12.530926
Na    33.293873    22.796446     1.822471
O     27.103758    46.267533    19.175590
O     20.056754     7.495392    14.983079
Na     0.569190    44.723214    14.866278
Na    41.402463     2.108351    10.723294
Si    22.658841    15.206339    25.195982
Si    27.971716    22.357395    43.922513
Si     2.157757    43.612010    38.899517
O      3.608787    17.649336    26.850028
Na    14.130633     2.874166    23.438161
Na    43.271122    10.238629     1.417759
O     40.270405    17.172354    24.739888
O      4.540172    29.940126    46.344770
O     16.119786    29.974948    24.371324
Na    38.790360    41.641540    38.430088
O     16.411856    23.261592    35.220475
Ca     8.500950    17.439613     1.503500
O     37.730849    38.064254    30.609710
Na    27.827732    37.636476     5.990466
Si     6.455833    36.022045     5.582134
O     17.036884    41.810998    14.616405
Si    33.926227    33.265990    34.423975
Ca    44.590869    32.708013     6.089056
Na     3.247230    21.898024    14.167647
O      1.223176    26.066766    39.747192
O      1.275808     5.596164    38.766819
P      4.537345    36.696162    44.126412
O     27.708035    12.592072    23.997794
Ca    22.295689     8.514331     4.370444
Na    11.829636    12.991585     0.316426
O     39.617875     1.964144     1.110868
Si     3.487308     5.642703    38.076310
Na    31.300378    20.743802    16.260543
O     13.271898     7.001247    44.317384
O     22.542673    17.141727    15.740251
Na    32.831664     2.825478     2.855412
O     35.560599     1.907905     3.922546
O     20.502707    21.194057    29.265668
Si    21.867923    12.154305     2.098194
O     46.108178    13.079413    21.201582
O     31.939598     1.096749     1.162555
Ca    32.025317    30.489385    45.793385
Na    18.280836    41.995526     2.129224
Na    19.738931    41.257144     9.029565
Si    26.018546    36.820321    31.034931
O      8.579851    42.662841    23.751541
Ca    14.073834    18.477489     4.176039
O      6.653332    11.272661     3.594012
Si    39.683927    29.214997    25.286428
O      9.957322    38.890893    35.207188
Si    18.715649    22.440260    40.638861
O     43.710199    14.748942    28.553866
O     43.805803    24.508542    35.460990
Si     0.871650    16.032542    10.088487
Na     4.126462    40.660582    12.305639
O     45.074899    14.967393    23.364507
Si    25.306653    38.344875     4.267875
O     33.713372     5.056367    38.062545
Si    25.524905    25.800271    41.766724
O     40.183203     7.739438    41.233324
O     23.488279     0.550409    34.279260
O     38.904575    26.253422    11.344210
O     31.155112    44.144735    18.472307
O     17.150358    15.358413    28.077403
Ca    33.628613    10.092422    20.722255
P     16.525697    10.411476     2.127481
O     33.210924    19.204582    16.302214
Si    35.776329    29.683562    25.888978
O     10.749497    13.302435    35.983917
O     17.089224     8.704981    23.640074
O     22.301917    15.109231    38.020714
Na    23.926231    33.390353    31.813092
O     13.131860     1.483222    19.787220
O     20.119595    24.807984    35.610445
O     20.755925    31.514781    10.995807
Si    45.000785     5.101295     2.062842
O     23.923562    14.291265    22.757045
O     23.360054    30.699402    10.547274
O      0.487176     5.415971    21.955499
Ca    16.720052     0.976999    19.453514
O     14.728331    27.719943     5.580783
O     13.282933    15.456481    12.308347
O     21.476691    18.407209     9.188576
Na    35.613192    37.304695    32.241866
O     19.629692    41.704150    23.683278
Na    29.470493    19.667236    12.394046
Na    44.326227    46.486154    32.826595
P      0.640840    11.637129    21.335149
Ca    22.457222    22.298096    17.320275
Si    39.380685    15.442363    32.084160
P     12.894101     1.162886    28.891019
Si    11.887860    29.356972    14.954334
O     45.793471    18.653488    22.593189
Na    10.730415    45.202210    21.473564
O      3.964172    34.974781    44.261852
Na     2.996651    31.169846     0.717084
Si    24.244165     8.299676    37.357298
Ca    24.687460    24.313221    34.354894
O     16.381209    33.809399    26.574677
Si    27.464353    23.088300     3.834499
O     19.961294    22.274757    42.060007
Si    40.113004     0.489088    23.841379
O     22.768296    10.888767    44.689449
O     39.359636    29.717488    35.942057
O     39.948222     9.278746     3.073490
Na    16.254190    40.265147    25.646549
O     17.803223    45.160160    28.400553
O      9.504557    42.951319     3.386809
O     32.864563    14.802893    14.019619
O     44.905658    33.150392    27.540886
O     22.721705    39.040198    11.431068
O     41.900327     8.612725    14.532510
Na    43.845050    42.982375    41.655049
O     35.576117    37.996753     5.744276
Na    26.120771    43.268785    20.586085
Na    37.771513    37.835373    34.157206
O     42.876592    28.469547    27.416913
O     34.037320    33.458600    16.442684
O     12.009360    27.646356    15.895730
O      8.867023    19.599308    22.693943
Na     9.259140    23.356197    18.760614
Ca    29.773295     2.964415    10.034395
O     37.722418    29.815468     7.114781
Si    46.401462    40.811934    41.732555
O     18.629211     7.155489    21.737534
Ca     5.146981     4.765064     2.631784
O     35.707246    38.864945    13.839293
Si    19.004362     1.509174    23.477906
O     26.518351    41.995550    29.549805
O      6.764105    27.819691     0.075732
O     40.309896    21.766092    12.264532
O     32.317568     6.399792    24.545056
Si    30.058527    31.965879    45.832415
O     45.739465     8.867279    25.065688
O     11.658586    34.400447    44.925513
Ca     9.144130     4.216570    44.940611
O     13.184639     6.449542    36.937676
O      1.025874    11.844539    34.576131
Na     8.482073    30.868235     4.787037
Ca    18.822974     5.787355    16.103307
O     39.814837    43.126312     5.543255
O     23.883235    17.150657    18.313898
Ca     2.378201    20.449675    42.355141
O      4.884582     1.028574    38.035848
Na    39.169553     9.138375    44.455818
Si    13.025695     5.154895    44.831303
O     37.987455    33.637269    33.093035
Ca    24.368690     3.932409     4.261909
Ca    42.136138    32.656944    19.869624
Si     0.026827    39.926914    28.573198
O      0.914908    28.590940    12.589921
O      7.486311    22.771724    14.375777
O     46.532848    29.312765    43.044481
O      3.468050     6.454609    31.458359
Ca    22.018779    26.391892     0.578846
Na    32.903838    37.552834    44.715981
Si    14.166727     1.984519    19.619527
O     24.839003     4.660534    32.353209
O     39.176482    27.414385    15.738940
O     21.765904    45.364273     2.812956
O     43.873169    28.605107    40.797153
O     24.830762    24.743490    30.812018
Ca    19.287797     2.174325    26.100832
O      8.955464    14.873636    38.252971
O      9.276747     3.018462     7.863818
Na    13.953598    23.408287    22.367900
Ca    18.882764    31.895729    15.296355
O     27.453430    24.308709    11.508690
Na    10.163619    34.033757    40.759997
O     24.870254    18.914890    11.849168
O     39.083765    11.676268     2.490792
O     37.164034    35.449819    31.552144
Ca    30.312941    22.374934    14.729281
O      0.189958     5.671864    44.100074
Si     9.571400     5.825417    23.350121
O      5.900661     4.028506     0.404044
Si    12.206375    34.342307    32.199349
O     22.550935    24.157244    16.110411
O     14.352309    26.991448    19.614027
O      1.320263    37.631779    25.876930
O      4.644654    13.885794    39.042073
Si    36.039005    30.961777    15.955397
O     39.095550    11.699071    29.315845
Ca     3.268100    25.771304     3.918498
Si    27.132175     8.434842    43.031300
Na    19.161667    17.931275     8.771360
O     34.947575    15.434663    33.135197
Ca    26.302100    20.631631    46.058274
O     30.906463    38.952257     9.549579
O     23.210282    30.608450    25.348015
O     41.515631    16.590410     2.958946
O     39.490515     6.847655    19.229989
O     46.427601    35.406028    39.046240
P     12.852060    19.334714     2.050925
Si     9.277738    14.256636    36.462671
Ca    15.439193    44.123674    21.336162
O      8.083991    19.832326    27.176809
O     29.180743    44.325316    29.918832
Si    25.948443    13.939221     7.905488
O     39.316323    45.186612    39.351100
Na    43.507057    29.780336    15.463299
Ca    32.965385    43.667281    19.942902
O     24.758420    12.768749    36.949325
O     10.273420    23.346029    30.530132
O     37.208417    13.770712    16.842849
Si    43.737222     5.832202     5.776665
O     17.682149    23.897466     8.759240
O     28.587534    35.347431    38.844744
O     14.902825    42.303688    27.295612
Na    25.347010    19.830226    43.671960
O      1.680791    26.853228     1.642911
O     17.775520    24.976565    12.136790
Si    24.447264    10.045921     6.570903
Si     3.827781     8.386315     8.129094
Si    33.202018    21.065236    12.852457
O     16.409452     5.124816    33.568692
Na     1.797454    20.306925    11.717117
Si     7.399557    44.000950     7.746722
Na    30.765405    24.087206    22.662812
Si    26.110048    20.500720    29.461030
Na    16.723694    12.767705    10.244319
O     23.664345    12.608583    22.861102
O     19.236031    14.362525    28.943632
O     36.837875     5.381746    21.662280
Na    12.348081    16.457636    35.415203
Si     2.644520    45.551470    14.941226
O     33.205796    13.166970    43.649685
O     12.952158    32.851527    33.703739
Si    25.019228    27.847404    41.005419
Si    21.875602    24.269295    35.364291
O     38.566579    34.255316    36.423042
Ca     9.395883    23.954144    25.579699
O     45.851848     9.096927    10.925281
O      5.859285    34.824113    10.202797
Ca    12.596720    29.694895    36.394992
O     32.856309    44.995800    17.089605
Na     5.235044    34.166619    13.692346
O     43.662145    31.565891    11.976927
Na     5.925774     0.195201    46.579595
P      9.152675    42.800853    25.739036
Na    27.094292     4.572521    39.254658
O     13.041023    42.415935    10.057394
Ca     5.679800    27.838596    26.362043
Si     8.783832    13.484325    45.017820
Si    21.488041    33.564516     6.900067
O     30.744815    11.309826     3.440944
Na     2.755348     1.600179     2.293875
O     12.975579    43.255322     8.367582
Ca     9.042167    30.097880    33.870389
O     25.194435    39.702877    35.899003
O     32.297595    46.291799    19.955070
O      0.156140     3.558048    31.569827
Si    12.897951    14.214413    20.526419
Na    30.045613    43.929551    26.891582
Si     0.663825    12.778340    32.955809
Si    33.335994     0.702187     2.146222
Si    43.873036    46.243200     3.051695
Ca    24.998106     1.409570    23.079150
Si    30.302001    31.382608    35.628528
O     40.046388     0.879154    20.545008
O      8.495519    42.023071    35.742221
Si    27.606998     4.472297    28.880732
O     16.387746     2.972572    12.707434
O     18.010869    44.973525    14.173241
O     26.612787    42.405520    35.865629
O     19.436133    20.965985     0.120648
O     14.531393    40.551153    29.352548
Si    12.911830    30.878801    33.709103
Ca     9.238307    39.764320     3.251932
Si    18.111213    14.029986    29.042478
O     36.140753    29.994387    38.775283
O     42.349568    28.330332    38.337633
Si    28.122646    10.626961    19.481890
Ca    34.533572    38.179672     9.956380
O     12.299297    26.704885    27.988437
Si    43.269816    38.383899     1.829250
O      6.542898     4.810846    30.681231
Ca    10.424781    15.897841    20.403965
Si    38.894748    40.088793    17.369523
O      2.212978     5.481355    41.961181
O     18.268084    45.626721    42.109734
Si    38.138713    34.846798    21.641876
Na    43.043554    18.239349    46.690665
Na    22.392341    42.291632    45.891359
Ca    25.338198    43.201491    17.664821
O     12.182892    39.815707    28.194299
O      5.413953    19.153876    43.208508
O     23.145070     5.679740    23.219500
Na    11.889495    12.156122    29.440564
O     15.529628    41.092478    23.315139
Ca    11.304011    42.806558     2.002510
O     45.503902    34.808155    15.870791
Si     7.529461    31.980450    15.829396
O      6.740627     5.265707    32.185042
Na    34.665684    10.354489    28.853984
Na     3.562917    21.418267    43.886207
O      8.573122    34.977778    10.151775
O     44.295749    34.764177     3.206945
Ca    27.563960    22.280085    28.796200
O      7.311488     8.536580     4.931747
Ca    39.772840     5.517624    37.040362
O     38.694455    42.130143    36.179003
O      5.420907    36.656247    42.561335
Si    19.879592    37.980159    23.652740
Si    24.282319     4.838612    33.444565
O      2.705979    38.968397    13.598405
O     18.554385    23.685819    33.601282
O      3.351413    45.379892    18.528350
Na    19.263223    25.649939    13.268645
O      9.061731    15.017803    28.414640
O     31.953717    20.433254    27.236064
O     42.485445    42.307447    19.262065
Na    11.585512    44.223866    24.019199
O      7.281297    19.045303    33.504829
Na    17.933289    39.493017    19.554663
Si    30.055659    38.184213    20.417500
O     11.447388    19.036871     3.014975
O      1.610559    12.013792    30.489192
O      9.313800    26.336714    25.205489
Na    43.248439    33.894847    16.357284
Ca    38.314607     0.699393    11.524627
O     14.698398    16.720543    31.658999
Si    38.574591    24.825753    46.544873
O     27.634507     9.875216    17.860020
O     39.094646    20.930389     6.032628
O     12.218379    31.154331    38.008079
O     31.291103    44.882475    15.153167
O     29.913711    29.874628    35.629230
O     46.130320    14.176273    26.461768
Ca    33.435423    28.977452     8.620223
Si    20.267305    36.288442     1.515568
Ca    37.744282    12.547918    19.225204
O     36.096635    30.207065    15.984577
Si    39.519429    23.491901     5.218494
O      5.417696    21.406541    26.891844
Si     5.759621     1.828967    36.597379
O     27.672543    22.519855    13.863961
Na    37.594644    10.112176    34.350039
O     35.527967     3.956959    28.783309
Si    16.872995     1.314675     7.894939
Si    10.815810    35.321757    25.937772
O     16.877251    21.886117    10.522518
P     20.548375    21.010684     2.912827
Ca    16.925740    16.252385    21.068463
Na    18.988819    34.852677    15.626758
Na    44.296636     1.511040    45.651732
Ca    26.248490    17.066794     9.011495
Si    11.465427    39.788056     2.205667
Si    33.006835    14.197147    42.070018
O     22.239985     7.793453    35.439531
Na    38.834913    45.473987    14.710957
Na    17.700553    31.077546    30.594576
Na    41.389512    20.446149    36.321499
Si    23.831738    42.318898    19.679813
Na    37.380250    24.983101    30.918648
Na    31.086944     1.184815    13.165792
Si    17.269588    26.667817    12.764865
Si     4.781747    12.604583    39.462360
O      2.363527    45.238687    15.473357
Na    19.047503    43.894439    41.109695
Na    43.560041    20.594952    12.252595
Si    42.279005    46.334055    45.784874
O     12.101818     4.379636    20.029307
O     39.357069    42.619869     0.240055
O     19.199939    34.780447    11.945916
O     18.445588    32.932578    24.955941
Ca    28.159936    43.619589    35.340261
Si    18.740604    27.321170     6.121681
O      9.643601    41.091349    18.194423
O      6.566880    26.371090    16.090207
O     34.160155    27.170684     9.678331
O     40.311588    33.356726    36.631893
Na    33.230730    25.499191    27.099368
Na    45.357650    40.546121    21.214066
Na    23.407651    15.268993    40.840905
O     11.782627    44.418833    17.165700
O     30.186418    36.843511     7.057201
O     11.009944    43.532998    19.957045
Na     3.619544     5.086029     8.615707
O     43.370829    33.058480    21.531032
O     27.155436    38.199973    37.908503
Si    45.774816    18.486968    32.002039
O     19.653511    24.238569    40.074299
Si    13.754493    35.941912    41.140466
Na    39.099314    16.535451    20.684067
O     39.718412    30.881727    19.517794
O      0.923028    27.700040    19.812531
Si    37.801145    18.232743    13.591662
O     36.160779    22.241841    27.713216
O     42.843611    28.938676    32.813971
O      8.092455    21.742775    20.383316
Si    28.350853    22.750950    12.153097
O     18.852528    11.187407    35.404471
Na     4.575357    43.494070     6.831820
O     25.407808    20.490266     1.654803
O      7.081258    35.296069     7.429922
Na    18.424931    32.973516     3.662248
O     39.303135    29.738676    24.312629
O     25.491114    14.384843     2.247864
O     36.947265    16.842645    14.167044
Ca    15.994995    27.247869     8.029015
Ca    21.293869    23.747302    26.035742
Na    15.450923     3.285268     6.511620
O     25.301826     4.923846    40.802627
Ca    37.822546     9.850925    23.322002
O      6.301529    45.400404    31.876396
O     40.251622    33.844204    39.404445
Ca    19.772120    23.587857    10.066761
O     32.666176    21.681346     3.397669
O     35.129621     2.419292    15.256666
O      7.384320     5.961290    38.890135
O     14.698524     7.239779    31.733667
O     18.618569    37.507296    19.349633
O     40.571470     3.145728    21.385497
O     26.547242    24.228969    33.592521
O     23.544365     5.864613    12.899930
O     38.011849    41.734471    44.756292
Si    17.537380    38.761921    37.828289
O     23.518949    43.224744     4.395619
O     22.381060    10.364110    10.195869
O      3.109425    17.468614    15.462204
Ca    10.379445    45.268503    18.470699
Si    24.031154    23.183068    15.390754
O      4.537622    29.563704    12.960327
Si     8.010028     9.941411     3.813184
Si    24.835369     8.697326    46.192716
O     26.024900    25.324443    40.525987
O     34.944783     0.558269    34.809198
Na    12.449061     9.824398    11.945153
O     26.461048    20.631893    29.544647
O      2.990000    46.527561    23.342421
Si     6.667660    28.055617     5.537070
Si     8.468887    16.074490     4.543931
O     17.229780    45.346103    31.945505
O     41.806878    41.454562    27.845524
O     41.693140    43.008663    25.320521
Si    14.757060    44.780591    13.426182
O      0.947859    29.217891     9.336641
O     15.511306     6.902407    21.328307
Ca    32.707027     1.047401    36.179253
O     22.778966    32.610547    12.105212
O      4.535087     4.848242    40.164146
O     38.649168    35.739534    28.859942
Na     4.681725    45.777667    24.536509
O      0.551727    35.825531    29.474385
Ca    45.737700    16.500837     8.935518
O      6.120836     6.871180     1.238743
O      7.480633     1.582437    18.571388
Ca     4.928707    45.066495    37.431697
Ca    37.336676    38.561487     6.813075
Ca    15.940247    16.249757    14.372886
Si    44.824641    35.078814    25.253881
Si    36.298882     9.060501    42.618319
O     32.458216    20.063861    40.141530
O     21.684491    29.402316    44.289675
Ca    15.413052    26.304085    25.097268
Si    23.087321    45.404893    17.805525
O     35.739168    12.143046    14.524864
P     43.666128    12.604672     2.207870
P     21.268752    19.618035     8.051290
Ca     8.344663    18.664930    16.084019
O     12.521383    40.572427     2.095508
O      2.487667    45.280051    38.185359
O     34.253420     2.999366    27.498430
O     42.495440    16.016263    23.919208
O     29.263435    39.798750    19.832093
Na    39.902565    37.563890    43.344181
O     19.574484    10.089614    38.061771
Na    19.520899    20.192297    45.019543
O     30.622064    30.243470    31.859858
O      3.507341    19.044739    43.730996
Si    46.033354    28.402350    20.218085
O     14.961041     4.915725    11.193269
O      5.853737     3.732374    44.015607
O     32.580201     2.407701    20.682600
O      8.766760    19.499984     8.307956
Si     8.511057    42.305222     1.908292
O     38.806615    22.280129     8.529004
O     16.675702    23.709720    41.859224
O     30.380985    40.365739     8.186961
Na    17.265993    15.449802    25.743487
Si    37.306176    22.941236    28.165747
O     40.688613    31.344360    12.412778
O      7.346440    25.403070    46.563699
Si    22.433775    45.655970    22.172204
O      9.601715    13.679039     1.209021
O     33.674467    39.867100    11.376749
Si    27.292175    10.623831    30.022178
O     19.969097    21.329142    39.335431
O     20.976473    11.598773    12.872229
O     40.400729     4.368069    29.061544
O     40.199824    46.377523    40.221792
Na     6.579074    21.039952     4.655371
O      5.745666    36.604178    45.521895
Ca    12.219563    38.587025    21.521617
Na    24.282731    15.723880    15.300096
O     26.678269    39.512519     4.973245
O     21.198837    31.175499    41.547942
O      2.122128    29.138282     6.731912
O     45.825761    17.716677    30.745029
Si    32.757984    30.191818    43.516392
O      5.335827    38.310462    12.214254
Si    23.594174    29.204544    43.383078
Na    32.036230    42.078227    43.363154
Si    19.791713    10.439363    27.440011
Si     6.444073    44.282400    18.900476
Na    16.225009     0.518781    14.333799
O      4.769028    11.995307    19.387117
Na    42.716314     6.335586    37.201648
P      8.052234    10.388102    21.861177
O      4.293257    39.406845     7.900470
O     36.413663    20.777597    41.626931
Na    20.843114     4.522871     3.572704
Si    24.764839    20.213312     1.207603
O     30.219428    18.542934    36.804882
Ca     1.613922     0.185376    32.017324
O      9.615538    16.355288     3.077098
Si    44.496568    19.079346    37.706724
O      5.388186    16.224706    34.691418
Na     5.163650     6.249289    45.723820
Si    17.871252    46.583247    33.222555
O     30.876115    37.713614    11.925661
O     28.180348    20.628241    45.058102
Na    32.445773     8.867473    10.766595
Na    31.398226     4.270361     6.818916
Na    29.631802    22.542062     5.522764
P      6.858771     9.536418    31.258240
Ca    20.344861    41.769539    27.243461
Si    38.232861    33.382366    33.706327
O      7.768934    35.949763    24.945385
O     30.797395    35.337661    42.872089
Si    19.078933     4.399418    41.606128
O     33.043441    34.045494     5.339143
O      0.197292    34.338563    18.200206
Si    40.917577    25.048762    28.692871
Na    24.547448    20.267282    33.005798
O     17.286163     8.021028    45.757926
Na    25.213351    43.901021    15.463610
O     45.061282    28.632369    21.952847
Si    41.012910    17.619482     4.642702
Ca     9.681222     1.847868    35.916594
Si    40.875303    15.901481    24.789594
O     17.766308    15.617217    44.698968
O      7.369547     2.249460    43.927454
O      3.218730     6.763311     7.342575
O     28.784649     9.540887    14.832633
O     33.528280    38.286902    33.916366
O      5.706497     6.640948    30.470754
Si    35.577108    37.072176     6.011947
Si    26.484023     6.375088     5.434856
P     18.580493    37.849993    17.607129
Si    36.369765     5.150433    46.739143
Na    38.112490    26.868322    19.842527
O     12.238627    29.101166    13.146845
O     35.546387    36.779686     7.903317
O     30.779429    14.773563    31.113704
O     22.248544    11.710758     3.897394
O     38.656722    14.934654     4.910731
O     46.098538     4.978326    29.412268
Si    31.665472    44.624618    17.783692
Na     9.449618    18.148797     4.255018
P     16.209648     3.090150    22.523434
O     16.671798    17.216928    32.970239
O     28.657229    32.425777    35.597291
Na    25.892453     9.485738    33.909776
O     28.226212     1.019394    22.982015
O     35.199862     2.925461    31.564844
Ca    10.374531     7.917550    20.613740
O      2.875219     2.583247    22.441328
O      5.476139    43.023939    20.403170
O     38.239348    15.684987    40.737909
O      7.086810    34.400144    22.442056
Na    42.427908    10.378833    25.648531
O     24.948285    14.657089    19.974245
O     33.525773    37.026376    29.146184
Ca     5.577982    43.059748    23.435355
O     15.786032    30.151163    30.689037
O      7.634042    14.276848    35.555817
Si    32.864384    36.442536    21.303511
Ca     6.315124    26.084037    10.652264
O     38.274874    15.930282     7.906951
Na    45.172088    28.213443    16.809715
O     24.349171    26.681977    46.623550
Si    13.526361    16.855073    18.930410
O     34.766667    35.459766    37.548691
O     18.740811    17.119740     6.800401
Na    16.638038    10.172683    37.996711
O      6.749370    39.428054    46.034020
O     34.165317    22.688212    13.030986
P     40.022088    21.022385    12.476055
O     11.416222    27.700021    10.579042
Ca    24.980285     7.019499     9.763493
O     17.056838     9.856015    10.035227
Na     9.200727    39.910325    16.638632
O     19.293986    34.698490     1.578364
O      3.887855    14.746888    32.704339
Si    43.980021    41.567048    36.325399
O     24.691526    23.356371    14.216028
Na    12.299956    21.232621     6.669601
O      4.984014     3.219763    35.663340
Na    32.828377    24.459307    33.204488
O     27.035554     1.285735     1.010330
Ca     7.890760    40.169638    14.824722
O      5.682793     8.861844     7.397604
O     15.533692    24.073521    33.119258
O     45.910145    44.922981    22.907622
Na    26.904220     5.775324    14.062509
O      6.030563     8.220169    31.798989
O     45.643553    12.314153    32.405449
O     44.310286    23.855843    23.542480
Na    30.649315    36.234048    45.644718
O     16.339837    10.717665    25.579766
Na    35.235470    24.768580     0.021239
Si    38.809514    37.621732    10.876606
O      4.316303    11.160425    29.217952
P     14.711883    36.194449    35.765003
O     36.202200     9.204880    20.226605
Si    36.808193    15.311642    41.163231
O     25.530537    13.074816    46.604372
O     13.565183    14.657902     6.592159
Na    26.279187    15.260249    21.265954
Si    29.183176    35.576002    36.957177
Si    32.680741    14.032324    38.967838
O      2.275365    26.804238    11.153551
O     10.525331    28.457386    42.320370
O      7.456874    29.148873     2.118161
Na    37.670248    17.881212    40.400187
Na     9.891489     4.789144    26.453344
O      5.707074    15.467101    20.692421
O     27.905628    17.675535    16.412068
O      9.983451    16.519813    15.621446
O     19.936538    11.993757     2.588103
O     16.157652    44.664127    13.265224
Na    36.926696     8.334562    17.983938
O      2.763905     3.590652    32.967845
O     34.819513    38.559715    27.368926
O     21.186613    32.567144    26.677649
Ca    20.685743    35.009341    18.035465
Si    11.469529     3.159181    21.377440
O     39.528070    33.791273    41.843486
Si    32.299891    27.139315     9.292155
O     20.498424     8.010600    24.985806
P     44.726785     1.229678    36.181596
O     15.816123    46.312852     0.326953
O     31.871061    35.633964    22.598940
O     34.965926    23.314981    33.390317
Si     2.405259    35.105253    12.061768
O     45.202521    26.866059    19.414323
Na    37.856137    35.987210    27.057121
O     31.063383     4.736587    32.650806
O     10.439242    18.043191    40.659739
Ca     7.771770     2.570366    29.794890
O     22.954831    29.533092    30.046716
Si    29.747851    15.935176    19.544982
Ca    15.514091    36.536544    22.446151
O      7.500406     0.242692    22.875647
Ca    28.650894    18.156208    29.699833
Ca    42.707753    21.216535     7.942657
Ca     9.466617    21.763274     2.184608
O     25.027581    19.848233     5.197685
O     45.616603    41.129274    40.031522
Ca    44.202553    38.976409    12.980784
Na    19.159269    45.889256    30.896505
O     21.806441    33.962797     6.577534
O     42.743748    40.449300    24.357281
O     28.008686     7.093562    41.167777
Ca    38.666104    29.941898    18.097423
O     32.610894     0.038456    23.091914
Ca    37.578662    26.847034    27.841679
O     27.783244    37.283143    30.534150
O      3.478104    35.642645    13.475886
O     26.077114    36.628692    20.708349
O     42.227173    17.025742     5.983131
O     15.954432    24.162824    23.854657
O      7.618107    14.400948     4.636461
O     24.390346    42.910662    27.318631
O     46.297455    41.411951    42.339481
O      9.946682    46.122349    23.451166
Ca    17.612137     6.419472     2.517675
O      8.677205    32.924597    14.677633
Si     9.287253    14.259400    26.208052
Si    16.432522    45.260888    41.848140
Na    42.444710    13.985753    40.994114
Na    35.818705    32.065729    13.080966
Na    24.522080    37.347945    19.444278
O     16.631092     8.860747     2.928727
O     20.050539    38.244459     6.915544
Si    19.586271    45.319130    27.870369
O     29.455404    17.736144    18.963955
Na    11.159264    15.582681    13.963938
Si    22.626113    32.318841    11.151308
O     20.925266     2.605579    18.373929
O     19.391916     4.579408    34.390189
Si    26.099841    14.173444     1.299625
Na    16.834762     5.521924    22.903369
Na    13.251795    32.913171    26.786111
O     45.960595     8.566485     7.851778
Ca    42.050777    20.385254     4.255750
O     32.686893    24.463976    23.383546
Si    25.474425    35.626097    22.182336
O     21.088977    39.221317    13.292197
Na    44.930193    24.468676    37.237737
O     14.277938    45.847646    14.934720
Si    36.267277     5.752613    24.938176
O     35.191082    25.733719    22.807736
Si    44.562881     7.823654    26.135042
Ca     2.242418     5.368894    26.379305
Na     4.032915    12.236924    14.979406
O     34.656777    26.813024    28.901541
Na    34.147957    44.188595     1.030582
Ca    42.343890     0.920383    21.352302
O     14.481863    37.716545    29.909367
O      8.024195    43.176779    27.102499
O     12.414888    45.394996    34.412539
O      9.235574    36.461922    39.796634
Na    26.737859    23.517645     0.125004
Si    39.682636    45.617059    34.821662
O     44.688366    26.194049    46.176570
Na     9.928714    15.509132    30.961737
Na    37.985600     9.795479     3.576013
O     17.757625    20.499728    45.665996
Na     2.728628    33.233980    37.166187
Na    37.398348    40.076886    31.812831
Na    20.847283    16.038595    11.547497
Si    40.159018     7.784392     0.046740
O     41.686605    44.407947    17.179482
O     26.548387    40.786131    18.880124
O      3.028621     6.286720    24.540078
Na    10.738166    23.498034    35.309843
O     14.251507    45.247237    36.774720
Si    25.848798     5.262501    31.871365
O     40.039425     6.253079    45.557545
Si    13.518196    11.055888    14.447554
Si    17.927815    34.130399    25.552562
Ca    37.129228    27.259137    42.031431
O     18.062885    44.707662     1.408633
O     23.148500    19.967271     7.622673
P     11.609639    29.193524    43.200538
Si    31.446616    22.185666    26.597091
Si    34.858276    38.129140    35.253616
Si    22.834864    24.420747    28.187451
O     26.156814    33.856501    22.265927
Na    21.792929    10.319891    35.379586
O     16.933810    46.100473     7.443125
Si     9.878786    24.316610    38.264314
Na    18.948216    43.232529    33.563417
O     23.034541    10.528456     7.155850
O     23.593355    27.672514     2.131363
Na    15.083571    11.204558    28.083704
Si     6.359715    36.525778    12.233585
O     38.182123    36.393574    22.913412
Ca    35.152011    27.359176    42.599288
O     20.310558    18.442693    44.443926
O     40.484711     6.736681    35.177915
Ca    18.793390    28.662312     9.615413
Na    16.684139    36.924596    29.246578
O     23.895660    35.100502    21.337954
O      1.625378    35.657220    40.926354
O     18.330205    25.443109    34.213877
Si     0.863321    27.977493    10.838005
O     28.756153     9.187445    20.878885
O     25.523783     4.178012    37.583413
Ca     0.596244     3.667309    12.818631
O     19.466395    11.367305    10.394298
O     35.344372    32.472102    17.394043
O      5.501815    25.177837    43.085580
Na    20.135583    34.334173    42.424341
O      9.322570    42.836646    25.569604
O     27.842239     8.866347    29.718216
Ca     3.225866     6.250213    10.228225
O     30.668387    18.383325    33.529158
O     19.924245    39.777085    24.128557
O      8.785010    21.159579    14.524077
Na    39.085767    35.834688    41.933980
Ca    24.525148    20.821329    13.587508
Na     6.300303    31.072350     0.339838
Si     2.078522    40.113154    14.091894
P      9.582748    35.735797    45.725757
Na    16.562895    42.902015    43.703674
O     13.899897    29.771504    32.517634
O      5.904755    37.223203    23.067618
O     42.314294    44.913332     4.180918
O     34.813543    10.568394    39.208922
O      1.323245    19.991402    16.663381
O     27.353602    19.539404    12.473329
O     45.710659    45.400300    11.837320
Si    38.676719    41.953229     6.452715
O     35.630119     8.077127    22.499438
Na    38.168586    13.209150    24.583892
Na    18.976810    42.629356    25.918999
O     18.188754     4.216880     4.333171
Si    31.495608    38.094033    42.246721
P      5.180283    11.079331    12.939730
Si    34.231231     9.688040    32.624812
O     32.254272    27.177504    21.544531
O     41.751962    26.829203    46.458463
O     39.335885    42.164539     8.553948
Na    22.415263     9.200538    15.060437
O     26.534970    11.411539    28.854331
O     39.320851    40.848097    19.025769
Na    13.514872     1.094913     9.573605
O     29.466356    22.198939    26.645540
Na    25.746678    22.228178    22.775012
O     29.718184    35.514895    40.082539
Ca    18.466495    37.312447    12.397610
Si    13.150157    15.420244     8.330026
O     13.431082    11.774944     6.779122
O     11.693008    46.591470    37.226494
Na     2.758057     4.810726    21.248576
Si    25.310346     8.484500    14.685954
Na    37.333865    10.315251     0.617979
O     18.956580     1.012436    23.520856
Si    18.127309    40.697000    45.498654
O      7.512016    32.502229     8.453270
O     20.971974    18.926275    11.099851
O     22.943201    14.455129    23.601747
O      1.775494    20.281700    40.407050
O     33.488489    35.928584    16.669999
Na    25.613884    28.975837     9.972449
O     40.977305    17.393357    34.495214
O      3.807475     7.164107     3.268950
O     37.688052    28.489326    25.769264
O     26.099198    31.149942    14.402844
O     33.593146     0.757580     0.956038
Si    17.510559     4.413983    34.963995
O     29.498475    31.753803    15.567371
O     38.889818     4.640019    33.996732
O     28.578155     1.567397     8.662894
Ca    38.522853    32.596377    38.687919
Ca    32.356310    46.235677    46.393027
O      2.200430    11.050351    20.518121
O     39.069708    14.766560    22.537292
O     46.578778    41.602623    45.784577
O     40.534386     0.536220     9.109481
O     25.883678     5.811028    33.043338
O     44.690942    41.628491    44.774441
Ca     9.040752    42.055430    38.462777
Na     2.236170     3.716225    43.355733
Na    45.830270    15.812415    35.977463
O     40.107013    27.909228    18.563045
Na    13.406230    43.073953    16.183023
O     10.800482    16.133747    11.980630
O     22.645690    38.434291    15.298504
Na    44.712357    28.079131    44.844343
Ca     6.485784     0.594963    33.043451
O      5.236119    46.103770     6.304216
O      3.041108    33.438994    11.461053
Si     6.440696     5.945481    43.552669
Si     4.806042    42.320693    20.908312
O     23.510697    41.552706    22.634955
O     15.633361     9.671175    32.639714
Si    17.375780     8.831221     9.142658
Si     3.330653    39.597597     2.497568
Si    42.068464    27.070736    39.939411
Si    44.925141    33.757768    42.925111
Si    18.476623    11.264403    35.411525
Si    14.824766    36.098356    30.969963
O     20.588230    29.986622    24.428635
O     16.780886     4.810877    36.718025
Ca    45.865969     3.162876    34.275685
O     37.576181    46.410434    13.219840
O     15.036248    18.182236    14.039167
Ca    10.218044    42.984707    42.842859
Na     6.209146    19.128223    19.766676
O     33.293888    21.299792    29.744916
O     24.335184     9.110401    16.179349
O     45.646168    24.435576    39.574828
Si    40.722721    44.449422    16.338818
Ca    19.272631    36.104520    28.405270
O     26.385412    10.033944    19.307194
O      6.733486    36.280972    14.573518
Na    12.632960    21.245869    11.780502
Na     5.652632    10.067755     5.263197
Si     7.351974    32.447448    20.796094
O      7.743175    24.608018    37.941059
O     45.869052    46.661898    35.808081
O      3.199626     9.458142     8.327580
Si     7.183963     5.401068     0.989019
O     38.038916    45.220753    40.497810
O      2.277441    42.917270    17.169406
O     21.484862    29.391413    27.505161
O     37.711070    23.261831     4.476628
O     22.525298    26.059477    35.462662
O      2.759251    27.230981     0.160127
O      2.372929    30.767040    19.452058
O     12.615610    39.897534    18.443882
O     46.488346    35.956756    24.954496
Na    20.930258    30.787665    36.787127
Na     3.409551     2.623317    31.356397
O     35.009699    31.097956    14.965471
Si    20.058769    14.083987    43.331824
Si    24.507598    41.396214    35.351339
O     39.848017    13.508195    20.228601
O      7.245847    28.454105    21.125029
Na    28.667034    46.458584    20.398661
O     12.520973    11.025013    16.137897
Si    14.913220    12.953676     6.121887
Si     5.558832    43.109160    14.647587
Ca    15.656631    42.970230    45.943366
O     39.610038    14.715551    36.535261
O     13.794062    43.832006    12.417424
Na     7.262607    42.937205     4.201940
Si    22.098176    12.608947    15.394753
O     36.504745    42.928728    12.012432
Si    21.874719    10.389169    26.687413
Na     7.100361    38.481331    10.081279
O     38.415271    23.064272    26.596263
Na    17.454524    35.860962    38.983065
O     46.745222    39.886162    28.069439
O     40.302054    29.233873    21.093937
O     19.320762     0.851076    16.104382
Si    15.610998    43.709857     1.997030
O      0.433570    43.381919     4.461235
Na    15.256700    27.660105    21.882496
Si     8.087985    23.724311    46.381834
Ca    18.254013    11.189336    16.250747
Na    30.794969    34.068209     1.302571
Na     9.817347    32.789647     8.753270
O      0.914114    16.656440    36.357579
Si     8.010697    26.420770    26.770579
Ca    26.763684     9.770799    45.206543
O     24.781121    26.744557    25.324244
Ca    27.061084    34.899711    14.686112
Si     3.354888    27.757853     6.705362
Na     5.265407    17.652737    28.992836
O     41.242085    42.131998    20.750194
Na    18.903977    36.754706    21.208516
Si    16.700034    44.518436     0.124591
O     12.419114     2.700940    29.645684
O     20.856169    32.455093    44.239676
O     33.295966    10.969634    32.615725
Na    17.380329    35.674688     0.467974
Na     8.332425    31.659938    44.889001
O     39.037300    44.131158    10.520153
O     20.235829    10.945760    28.541532
O     24.325693    37.363002    30.511169
Na     3.258755    21.926282    39.061934
O      7.507909     7.816350    40.926478
O     20.012129    26.238304    31.908146
Na    37.779195    21.839311    45.440233
Si    36.267660     9.046953    22.101155
O     37.946655    17.406160    45.226772
O     39.648498     1.331805    23.345688
Ca     8.807127    27.568527    14.131181
Ca    14.739908    11.862748     3.112091
O     41.129281    28.082625    16.655324
O     43.950367    45.540047    45.561315
O     12.233403    34.740023    35.174580
O     33.450545    37.744056     3.079645
Na    46.673231    10.210574    35.007588
Na    22.807179    30.076924    23.329210
O     31.312275    39.839222    42.971783
Ca     2.447381    13.515931    38.603997
Si    38.281311    13.889010    21.085998
O     44.546117     6.187417     4.067108
Na     3.923103    28.902170    40.363853
O     40.766545     3.289981     8.874855
O     20.910974    11.221648    20.788968
O     23.004476    36.445483    14.333623
O     42.543218    22.365146     1.229091
O     43.484715     6.704871    25.029476
Si    45.343832     3.643525    30.503488
O     34.890265    31.116677    26.838818
Ca    41.220288    41.577793    17.675082
Si    21.227174    11.590592    11.067873
P     43.674737    23.323845    24.458050
Na    33.658543     8.689815    24.340017
O     42.367851    30.088775     9.532257
Na     4.328813     0.076988     4.576392
O     28.889216     3.110756     6.323426
Ca    12.657734    27.548332     2.552368
Ca     8.949245    16.643430     7.619086
Si    40.655605    34.633490    41.402908
Na     1.510569     0.378662    38.712249
Na    23.874324    42.720955    25.305601
Si    37.516452    43.612356    36.012377
O     28.284989    45.405521    16.446367
Na    27.114613    44.381461    31.182878
O      6.121128    10.677760    13.002782
O     20.880245    42.640735     3.299331
O      7.408769     2.447442    36.180060
Si     4.939535    46.521050    30.957735
Si     8.669403    19.275008    20.839727
Na    37.700528    34.283214     3.422060
Si    35.077172    41.128384    12.782135
Na    22.928959    21.639603     5.995011
Si    10.729374    35.746952    43.891188
P     20.764831    25.546838     6.856948
O      8.702403     4.876899    17.139464
Na    44.661203    41.996895     2.067367
O     28.519803    16.982810    26.464905
O     42.305859     0.481641    25.098266
O     20.623828    35.889425    40.742532
O     22.923812    42.870001    21.229530
O      4.164615    44.638990    14.857509
Na    43.356603    28.948617    19.690606
O     29.716607    24.981622     6.145918
Na    46.214177    37.095433    40.251974
Na    46.496795    20.701432    21.142177
O     40.065909     6.299771    27.381587
O     23.674011     7.808861    46.593003
Ca     1.831430    30.051091    35.420445
O     17.982183    33.555583     0.607563
O     43.372324    21.929365     2.992982
Si    40.901437    14.512550    36.127664
O     37.913214    13.391940    13.389419
P     24.975251    27.621835     1.025961
Ca    11.749600    46.170058    25.913641
O     22.312094    25.775568    27.021958
O      4.641740    23.775385    28.027878
Si    36.744094    21.004920    40.759351
O      6.115707    14.721359    24.569348
O     12.246533    36.875709    40.551149
O     25.318622    36.719874    23.710830
O     15.275730    31.357031    38.206750
Na    37.732262    41.222446    21.262409
Ca    38.056230    27.516149    32.645797
Si    11.690119    34.002706    34.570385
Na    32.279124    40.629150     9.494927
Na    12.961571     7.812808    30.613608
O     44.027057    35.733747    22.047347
O     41.880998     8.830667    46.419025
Ca    43.464277    17.138989    39.299993
O     13.075346    30.447056    15.943556
O     17.413195     9.530606    20.688229
Si     6.762651    40.228153    13.212652
O     26.044269     7.931660    46.000263
O     29.344547    31.546814    19.169379
O     45.374162    44.644888    14.114992
O      2.098567    19.000942     7.886438
Si    12.855735    41.441066     8.889194
Na    15.875690    41.026699    38.828803
O     18.212633    30.044352     7.874878
Ca    31.267060    23.998167     9.075413
Na    23.836750    21.826879     3.184546
Na     9.500050     1.989165    19.828115
O      0.486909    10.613062    22.833639
O     14.245259    30.746545    35.065526
O     32.903432     5.793312     9.206193
O     17.697434    37.299755    32.080919
O      3.835738    10.841226    13.079993
Na    19.255462    40.744746     5.659156
Ca    26.182982     4.756333    44.090654
Na    45.154708     5.639516    23.150719
Ca    15.706758    16.659055    24.031126
P     17.853757    18.058227    15.710126
O     21.049068    36.187284    44.463084
O     27.904730    43.069254    44.607263
Na     7.014539    43.373970    36.138735
Na    17.651168    19.884938    25.641912
Si    12.073291    42.970317    21.302969
O     38.962608    15.265213    38.318419
O     41.159772    24.646836    28.285973
O     32.733444    44.170607    27.804657
O     10.572437    28.359413     7.696229
O      0.390160    10.270592    41.235343
Na    45.489129     0.087509    21.601262
Na    38.943930    29.003426     5.472618
O      4.368179    16.903323     3.114552
O     10.388356    12.841458    26.566955
Si    38.226093    14.753558    37.146494
Si    16.999416    14.790549     7.034347
O     32.742992    11.789164    22.979234
O     15.438300    34.422837     0.940178
Na     9.038029    40.985145    20.097382
Ca    21.266779    12.662976    29.782816
Si    25.029281    19.893609     5.364136
Na     0.423862     3.288556    41.494112
O     23.067996     3.518087    39.502848
O     35.172216    28.885975    40.967205
Na    18.520046    17.000624    28.753960
Ca     9.298449    20.822728    28.382832
O      6.818507    25.901030    26.377201
Ca     2.331119    17.653432     2.225516
O     20.602728    15.696695    43.251534
Na    20.950634    41.930870    30.612612
Si    46.233263     6.633909    21.002352
Si    10.748233    39.542881    18.714519
O     35.710806     9.468959    33.890873
Ca    15.149112    20.440007     9.465940
Na    26.685166    24.601145    13.810711
O     27.304046     2.633181    21.010143
Ca    35.906434    33.901003    41.248260
O     26.369730     3.894175    27.886013
O     23.777605     6.444949    38.054357
O      1.799812    14.506866     8.068731
O     12.825846    34.493561    40.297087
Si    22.297055    43.821250     2.791028
Si    10.552460    45.916235    10.220065
O     16.561805    45.693457    34.226859
Si    30.456685     4.212863    41.827386
O      6.898162     4.952283     7.343230
O     20.960302     8.318479    19.347950
O      4.841703    41.813258    45.761614
Ca    24.072458    40.381714    10.881206
Na     4.466885    23.763326    24.960303
O     37.472219    30.823855    32.271322
O      2.634454    35.012026    38.635764
Ca    35.172237    45.426563     6.913991
O      1.168042    19.963011    24.102757
O     11.401175    30.019717    34.489381
Ca    39.854831    34.132081    13.560131
O     19.082646    37.145293    16.047276
O     25.420290    21.588256    29.092021
O     14.046340     2.415458     2.349864
O     23.328388    23.780823    24.195770
Si     8.758180     1.432062    43.231609
O     11.777092     1.031081    27.468833
Na    27.255313     2.357096    38.590137
O     27.405486    35.503331    42.450481
Na     1.245233     8.233449    22.191719
O      5.923555    10.137856    14.727459
O     38.077599    21.988688    29.667708
O     17.298429    43.115335    23.447537
O     42.493327     5.249987    44.122220
O      1.385127    33.542247    27.403134
Na     4.268730    23.153226    21.279777
O     10.398432    35.879653    13.389340
O     35.355254    14.408473    30.313600
O     12.185419    27.516831    19.080558
Ca    42.287470     2.359465     1.196080
Na    10.513516    17.134895    33.893685
O      6.484009    23.141666    18.684313
O     13.089207    25.005605    30.529836
O      0.283559     7.512690    19.497163
Ca    46.607025    27.244498    17.875376
O      9.880641     1.887365    25.137586
Ca    41.274128     3.764895    41.636096
O      8.507404    41.104866    26.059577
O      1.838295    15.380256    25.769981
O     18.460226    31.407105     5.493690
O     14.520267    27.017004    16.821050
O     33.091940    22.997138     8.997815
O     18.273674    10.549631     1.599652
Na    20.152040    14.052673     7.631484
Na    21.480689    36.502226    15.701047
O     28.765290    20.115650    24.149860
Si    18.716751    38.920240    31.897809
O     24.840896    11.356558     5.280684
O     22.211524    42.836746    12.978639
O      8.319604     8.206080    14.039706
O     37.230254    32.594199    14.724569
O     34.962188     5.348676    31.803772
O     18.570520    42.154436    44.396708
O     19.837138    28.747604    41.204915
O     15.850498     1.136851     9.426236
O     29.515790    14.648241    18.191263
O     12.221336    19.581919     0.406311
Si    14.993563     3.660381     1.311859
O      4.835031     2.757809    45.218691
Si    40.887069    11.986363    28.657438
Si    15.353043    17.759582    32.068183
O      8.440067    18.460094    29.673344
O      2.132823     9.625447     3.914974
O      4.423401    40.050859     0.892696
O     42.095284    24.154000    24.424599
O      4.259040    31.977771    44.859201
Ca    29.603560    18.242881    39.246158
O     37.194519     4.652586    41.460136
O     13.725534    18.161887    11.875027
O     10.766244    10.147047    26.426667
Si    26.112594    18.066728    12.719056
Ca     3.408546    30.990625    17.216025
Si    38.485654     8.186276    20.247938
Na    40.213591    12.149777     8.749035
O     31.237868    38.421619     0.813030
Na    36.641377    25.854384    11.092804
Ca     0.129484    14.410848    39.583512
O      6.046979    29.248278    30.466418
O     41.953776    34.157097    12.881914
O      8.610080    30.082387    46.395805
Si    16.812984    23.743548    34.633496
Si    14.812256    23.622367    41.269342
O     39.677123    18.363755    39.340285
O      4.854718    28.219734     5.668117
O     27.142114     9.058222    42.831016
Ca    43.594130     6.207130    15.391950
Si     5.981216    22.445357    10.229628
O     23.294298    30.380748    13.177722
Ca    19.560249    45.017355     2.915294
O      9.005198    45.806143    34.001068
O     31.955113    29.907643    42.453535
O     41.872064    37.912783    22.677324
O      0.846016    42.478258    32.258571
O      4.781010    39.437605     3.910093
O     17.677182     2.324485    23.198956
Na    17.322958    14.924589    33.317438
Ca    28.626017     3.530391    26.318622
Na     6.549779    16.058555    37.303175
O     43.411574    16.137368     1.791138
O      3.738924     6.082298    43.922599
P     39.389471    24.741665    39.333483
O     18.901245    10.008647    18.271497
Na    26.054581     1.950555     3.439084
O     16.218640     3.080038     0.330952
O     43.233338    29.062501    30.118457
O     31.402089    10.652107     6.272299
Na     7.759963    10.040109    11.076973
Si    25.407672    29.137049    13.677841
O      4.857092    21.678907    19.651292
O     17.708860    40.114615    45.222810
Si    20.397695    36.219090    40.048795
Na    33.486283    32.180701    29.556838
O     13.504317    29.330826    40.056377
Na    12.287784    46.029403    14.228668
Ca    21.052244    27.207318    34.533840
Ca    30.010646    19.826767    29.058628
Si    29.231536    35.016319    41.846393
Na    26.857946    18.476931    26.391039
Si     5.975651     6.915507    32.269962
O      4.837238    29.246598     3.335121
Na    25.529817     7.040531    41.483515
O     39.435625    28.726589    33.602474
Ca    13.835868    26.053047    32.056007
O      8.402675    11.521245     2.767713
O     17.042942    18.656143    17.186564
O     35.116059    36.068167    26.849918
Na    31.934329     0.059248    27.431424
O     18.300168    40.575134    32.800388
O     29.657351    43.215412    36.829875
Na    39.368930     8.319328    35.590964
Si    33.319060    39.128495     1.557800
Si    45.816255    46.060892    42.240993
O     18.972532    12.267916    44.053080
O     13.835090    24.156233    41.740045
O     44.779113    42.738160     0.230331
P      2.253801    13.245673     6.695623
Na     6.126232     1.886028     2.094086
O     16.642288    18.733553    14.610679
Si     0.344308    36.801709    31.092756
O     24.632544    36.616515    32.309873
Si     0.998692     4.763436    33.379931
Na     6.228017     2.728422     8.999261
Ca    43.174475    36.808035    43.162074
O     38.488060     1.096533     5.068134
