2835
Stage 3: Densification N=2835, rho=2.2851, box=35.5056, NC=0.320, bonds=670, seed=42
O      0.739087    22.378481    30.676727
O     10.357853    26.391917    16.104360
Si    27.774015     0.430693     4.312320
Na     5.550345    18.318399    22.992159
Si    24.759823     7.960405    10.468826
O      7.888684    11.930439    26.795346
O     30.088269    20.379690    22.450906
Si     6.304521     6.609396    10.504105
O     22.162552    24.975753    31.684164
O     16.840487    11.790883    15.174595
Na    19.001080    22.704760    23.779733
O     23.520418     1.920601     0.172276
O      6.452312    28.706512    17.343000
Na    27.663306    19.776931    19.333142
O      5.948181     4.506147    34.334462
Si     9.684202    11.692633     9.347775
O     32.059694    28.294613    10.575471
O     24.889468     0.448966    19.718689
O      1.247664    31.692793    31.174739
Si    22.468799     0.943926    16.146916
O     11.349588    18.770472    30.017621
Si    12.202464     6.470977    23.482431
O     18.456541    31.035144    24.999666
Ca    19.046069    19.401162     2.629997
Ca    11.784050     4.488644    34.458217
Na     0.036436    14.551437     9.461866
O     25.077257    35.131973    28.547970
O     24.222261    16.879726    18.598404
O     12.052659     2.148846    16.789101
Ca    26.425692    25.367617    15.753499
O     16.010337    25.782658     6.754532
O     19.876359    18.364223    28.388373
O     21.544977     9.116897     6.267101
Ca     9.438554    23.535426    13.762886
O     33.027555    19.226379    29.808381
Si    26.760487    34.690059    11.404174
Na    32.905053     4.073033    25.273843
Na    35.062978    32.297205    13.792049
O     28.945534    10.611480    15.990163
O     22.620395    28.662360    15.736846
Na     0.022606    27.270431    10.764363
Ca    30.386569    17.078099    18.659535
Ca    32.111313    24.045756    34.381719
P     12.310533    24.846247     1.007333
O     13.433058    17.913464    19.094322
O     26.716299     4.949184    27.051958
O     20.076788    23.520682     4.207419
O     33.053722    32.682391    12.769013
O      5.595134    20.944291    31.141623
O     11.514664     0.850280     5.028612
O     30.279446    25.925503    17.245591
Si    30.557203    22.408475    15.469588
O     16.452284     8.183959    22.038282
Ca    25.220839    29.654864     5.096930
O     20.012655     5.425983    32.997276
O     26.069315    22.200555    29.924512
O     14.180845    32.545610    12.921968
O      7.949132    28.664545    22.832022
O     26.728295    27.295914    22.223437
Na    19.218194    27.721933     5.201891
O     30.682208    15.098475    35.036895
O     23.490893     2.800162    30.275706
O     32.432747    35.277398     0.819840
Na    18.845172    34.421405    25.194385
O     18.535109     6.858051     9.844588
Si     2.321426    12.833349    19.101316
Na    23.438181     7.370118    26.924235
Si    23.473388     1.907122     0.151583
O     32.804629    22.222426    35.371470
O     22.209870    18.526076     2.659093
O      7.892636     1.183500    32.014223
O     10.173335    22.180763    35.193516
O     17.091305    10.660680     0.675233
Si    15.495876    30.851114    18.435331
Ca     8.924182     7.569495    17.552559
O     15.367823    14.624911     7.196027
Na    31.712011     0.657158     5.334749
O     19.021793    27.028595    28.319833
O     18.607245    28.106666     7.009417
O      8.690275    26.136515    25.092011
O      8.921762     1.720021     7.498524
Si    17.482978    34.521453    23.376542
Na    34.614407    32.182071    19.576659
O     33.368850    17.841310     7.917373
O     32.219115     4.096988     9.784592
Ca    26.672096     5.473593     2.448511
Si    18.391190     9.034915    33.126109
Ca    18.599197     7.073345    15.742098
O     21.446745     9.900102     1.883162
O     33.863710    34.681053     1.877343
Ca    30.596346    10.757922     9.600355
Ca     9.740287    20.739298    31.445682
Na    29.242206     8.546430    27.171774
O     27.327954     1.123716    19.004367
Na     7.486244    20.273589    29.933985
O     14.246656    29.824135    22.694351
O      5.165287    11.014881    24.719445
Ca    23.183993    34.767727     0.491131
O     20.350330    11.321354     4.592436
O     33.850196     4.778044    28.828464
O     25.955317    13.123932    13.815694
Na    24.678057    17.945760     9.184865
P     33.744701    26.139094     7.587318
O     19.225333    13.047458    15.117154
Ca    27.244792    22.012001    25.259102
Na    10.767803    14.931289    12.027040
O      4.219395     0.017265    26.695922
Si    15.358301    23.099366    31.023580
O     11.299096    15.474522     1.843389
O     28.703754     9.293386    17.218221
Ca    15.414070     5.578458     8.231405
Si    10.251675     3.915337     8.719346
O      8.567987    18.349686     2.349592
O     27.837051     4.515543     5.292903
O     25.953151    14.645101    10.089564
Si    30.881597     6.944870     7.380647
Na    29.939398    31.718917    17.259640
O      9.066199    30.375574     5.587173
O     33.659512    10.254838    20.232353
O      1.256053    29.731872     2.622064
O      7.103219    26.274942     4.323149
Na    13.720963    13.796750     9.408595
O     23.228657    12.878931    23.246726
O     26.657613    21.708616    19.365201
O     11.989313     8.770445    12.086545
Si    32.242008    18.015323    26.818764
O     13.810684     2.088840    26.999455
Na     1.495157    13.162075     4.668597
Na     9.310547     4.908946    16.566915
O     33.198327    34.970713    27.862564
O     18.760345     9.801049    33.484538
Na    30.375757    12.288762    21.779303
Na     5.875933    10.727216     1.689046
O     31.737350     9.307641    22.666802
Na    20.682979    16.570382    28.916005
O     15.974670    15.342910     5.774154
Si    33.768334    16.825763     6.277574
O     15.572538    18.036256     5.000706
Si    10.559371    13.571844     9.187906
Si    31.829720    23.872542     8.024511
P     34.374291    25.679963    13.306523
P      5.699778    21.296030     0.123758
O     32.309941    19.598911    21.893257
Ca    33.978251     8.789206     8.299826
Na    34.922230    21.972002     5.872747
Na     1.815385     4.717531     0.177411
Na    34.626165    24.789193    10.158077
Si    15.884375    28.668654     8.399702
Si    14.041675    10.655098    17.273903
Si    31.866669    34.062538     3.202122
O     27.337891    34.803986    10.991105
Si    30.720667    10.547376    29.855237
Ca    29.082842    10.641667     1.818712
Na    19.495943     1.094362    11.458818
Ca    24.887641    14.016669    19.462198
O      1.764097    17.898018    34.978095
O     34.212073    15.576140    28.125205
Si    34.344450    31.784840    25.426926
O      5.387511    33.987688    18.119723
O     27.800959     9.512981    24.853714
O      5.220783    30.500271     9.712224
O     28.784460     6.230892    15.710421
Na     5.644227    10.119357    32.062883
O     30.823440     7.203415     7.326950
O     16.766840     2.925746     9.469821
Ca    32.418694    33.391207     0.994144
Na     6.686833    33.222130    15.952555
O     13.669538    34.205219    34.485599
Na     4.512136     0.049077    14.022466
O     33.851478    35.394647    10.427153
Si    20.067002    17.668150    23.760500
O     30.412848     7.447357     9.001220
Si    27.389833    16.010661    32.639451
O      3.623771    26.426055     3.209799
O     32.537724     3.683157     3.069182
O     29.072970    18.224939    30.904529
O     15.787018    28.703444    18.578374
O     34.859826    24.377387    33.547085
O      2.111043     9.124352    30.842376
O     10.591383    12.634702    14.663832
P     31.541952    12.526355     2.155425
O      1.999589    32.994626    14.504670
Na    10.501128     7.078330     2.472684
O     34.620937     4.478069    20.164593
O     13.519596    12.288644    17.893100
O     17.268300    14.604211    20.879302
Ca     6.163198    35.125246    11.447532
O     18.360592    34.522333    21.359971
Na    14.268831    20.418345    21.561290
Na    25.007420    17.061428    30.272738
Ca    20.651383    10.362096    33.929938
O     22.800887     4.363431    16.742729
O     27.034801    17.424828    33.657620
O     13.701563    29.981623     6.017867
Ca     7.673582    21.288146    34.648937
O     24.317007     2.542356    32.991932
O      3.070135     7.443885    17.080585
Si     5.822115    35.068597    17.800090
O     18.597194    22.300031    33.703497
O     19.046163    33.595224    34.395556
O      9.598841    26.294882    20.661758
Na     2.886443     4.164213    26.876643
O     14.407128    28.115132    31.479142
Na    32.038836    11.433233    26.282984
O     23.003655    26.918522     4.615174
O     27.798508     8.418579    28.587521
O      0.590481    17.159924     5.263458
Na    27.447802     9.295388    20.663681
O      7.631489    11.064919    34.875578
O     19.674402    14.186821     5.499762
O     15.548934    16.329525     4.715189
Si     3.010972     7.760092    15.279499
Ca    21.376362    20.079946     7.372990
O     10.647951    16.648032    30.770732
Si     5.228481    15.072266    21.805648
O     16.393792    11.022021    20.411957
O     33.836222    25.450244    12.977857
Si    20.502611    27.676453    27.583250
O     13.932044    14.655861    20.765733
O      1.875766    30.562577    22.009275
Si    23.773473     4.845069     9.613109
O     16.039010    10.679917     8.126924
Ca     6.791244    26.117777    12.592170
O     21.693961     2.446235    32.364270
Ca     4.099873    19.376469    22.238914
Na    25.665598    25.676952    10.379076
Si    27.290025    30.295205    17.841214
Na     2.068743     1.358893    19.014536
O     23.110662    28.915142    30.469161
Ca    20.981352     8.124869     4.348313
Si    32.451514    21.033678    23.758098
O     19.365037    35.129236     2.778557
Si     3.228533     4.264691    21.723417
O     25.190188    33.680485    30.814329
Si    14.147811    27.972364    31.501799
Na    31.410308    21.226403    21.723815
O     13.665149     6.192524    24.853029
O     34.455631    25.454790    22.118290
O     29.738242    19.022434    35.320095
O     27.194428    28.713640    26.827168
O     18.268284    21.550638    31.790839
Na     0.559086     1.281681    23.111239
O     30.676452    23.686758     2.367462
O      1.229030     7.872899    22.246267
Ca    13.270743     0.456787    27.528187
Na    31.507698    30.192025    15.774292
O     34.472488     1.192639    22.648127
Si    14.897116    28.785836     5.315854
O     29.419205     7.224777    35.136912
O     17.396265    16.227836    11.184357
O      6.084015    15.036746    14.010967
Na    10.312020    11.590413     2.591915
Ca    11.528777    21.127842    34.147769
Ca    27.654469    18.298490    16.233595
O      8.051936     9.190441    16.899030
O      1.075052    14.233353    19.091745
Na     7.002973    23.032432    16.212623
O     15.934343     9.314235    13.092483
Si    34.373549    25.147176    17.273578
Si    16.897318    32.732546    17.487970
O     15.241461    13.590811    11.659127
O     21.710337     4.231740    21.338418
Na    11.090508    10.325101    18.928347
O     14.285955    28.497177     1.608400
Si    29.560371    22.689336    27.158046
O     28.349797     7.435717    33.778799
O      7.551905    16.495774     5.410801
O     10.785656    10.821924    30.384571
O     12.974037    13.725042     3.262636
O     11.721552     4.853837    18.653351
Si    22.451635     6.063957    12.117014
O     20.425698    20.364897    17.680498
Na     0.730709    14.398327    27.123675
O      1.485677     6.070627     1.554637
Na     8.119424     2.791956    11.394375
Si    15.509372    16.237080     4.728027
O     10.515572    18.990146     9.403688
O      0.449695    13.585029    10.878046
Ca    17.236931    26.926628     7.560546
Ca    30.277711     4.291528    16.529918
Na    12.516949    20.711090    12.828810
O     16.994190    14.809824     1.289329
O     16.410531    33.185777    23.992268
O     32.272553    25.455574     7.934437
O     14.203887    24.373609    30.879817
Si    16.205626     5.662726    17.162270
Na     8.128605     9.021048     9.931214
Na    10.548685    16.250338    28.354859
Na     4.385883    14.541643    18.249108
Na     1.210643    17.180998     7.260823
O      7.808414    13.736062     4.974789
Na    29.758353    25.798075    18.845789
Si     1.563180    30.951397    25.381051
O     19.582401    13.558085     9.887699
O      4.956343     4.885815    18.817077
O      6.057056    20.667412     7.321906
O      3.393347    21.710940     8.161632
O     16.260261    18.658336    22.850848
Na     1.765666    21.288073     3.505047
Na    25.308674     4.160944    11.456722
O     29.084761    13.730101     1.355199
Si     9.012109    25.546725    34.431261
Ca     1.065362    31.476525    16.148709
Na     5.943039    11.570328    13.233307
O     32.554788     0.208461     3.476416
Si    21.808733     1.510803     5.862755
Na    30.231613    32.559880     9.522645
O     23.952063    19.129358     8.070532
Na    10.802289     9.476837    35.225741
O     24.096052    11.785505    14.790171
O      5.657092    24.499190    15.931661
Na     1.291085    11.164609    24.484362
O      6.810118     8.198089    15.318303
O     15.256335    16.155115    18.589366
O     24.208913    34.686715    26.373612
O     16.699624     7.812154    13.590134
Si    29.769526     1.565813     6.092214
O     29.464779     5.236744    22.659539
Si    33.608066    10.442215    20.360554
O     22.333311    23.568368     2.896697
O     24.780826     5.613755     6.616653
O     22.961546    34.440052    22.110157
Si    21.437807    34.631709    12.585646
Ca    17.738387    14.723800    15.129841
Na    26.507891    11.227264    17.120708
O     21.117645    31.452247     2.631343
O      1.769639    13.758695     8.345610
P     15.977866    29.879859    10.698714
O     26.806851     7.302005    23.231580
Si    15.009787     1.771197    12.936040
Na     8.654808     5.498024     6.113222
O     11.069185    33.101423    21.728125
Si     5.650702    26.243106     7.075079
O      8.983019    19.791300     2.883220
O      3.113816     5.697068    20.492973
Si    12.025445     5.403933     3.468899
O     18.262956     5.212835    24.592834
O     12.028786    16.339516     5.881422
Na     0.650991    27.010161    20.676407
Na    33.623337     9.365399    22.186389
O     10.460233     9.604477    11.241638
Si    10.963343     4.776442    20.277186
Na     0.000938    12.651128    19.904066
O     25.053935     8.086816    11.196521
O     30.369435     5.360996     1.688983
Ca     8.530889    12.580786    19.219133
O      5.611420    21.441495    20.764073
O     27.593972    31.815336    18.762476
O     10.197716     5.454405     3.234508
Na    10.095128    30.113200    11.770114
O     35.259337    31.131552    25.565735
O     27.073456    14.563825    33.515478
Si     4.999821    17.463984    14.345264
O     29.489509     0.628757    27.219233
O      9.567930    12.822019    13.980958
Si    15.799860     1.648685    23.739225
O     17.645862    34.374204    11.815908
O     25.545839    22.642663    30.903917
Si    24.364097     8.000340     3.295565
Si    27.914035    27.720006     7.496060
Na    18.185777    24.662927    10.608953
O      2.357831    20.034508    28.660855
Na     8.351666    34.432178    29.753217
O      7.671461     4.640044    18.905396
O      5.856797     3.331000    18.223203
Si    17.003918    33.661313    20.603939
O     18.857936    20.847654    31.321999
O      6.649658    19.406852    21.301320
O      1.130985     4.270837    25.319535
O     15.193654    22.021569     8.990067
O     18.945871     3.919844     7.912234
O     19.098625    14.455307    20.946255
Ca     0.116422     9.642322    20.759827
O     13.729803     6.412367    21.180615
Si    18.598063    28.525723    11.590720
Na    20.715269     6.037537    24.055726
O     10.217130    33.338652    17.070990
Na    11.679673    33.468229     5.774475
O     31.297083    22.181336     4.637248
Na     5.113534    27.011439    12.983217
Ca    13.065646    30.715009    12.385895
O     23.800738     1.009362    34.162535
Na    30.060309     3.581369    23.644179
O     10.023447     5.019364     7.306460
Ca     6.626143    19.451771    33.570094
O      3.512887    35.377134    23.122161
Na     4.430535    19.682106     1.333420
O      4.956474    23.690139    15.687117
O     11.154675    29.508445    19.592497
O      8.666415    10.340677    24.024883
Si     6.459212    30.194272    27.010777
Na    10.763870     9.699924    13.157083
O     15.632366    15.870475     2.191258
Na    15.557248    16.475059    26.016875
O     28.821945     2.221630    17.451561
O     11.226091    12.358729     6.944562
O      4.207363    28.463177     4.760350
P     16.109676    14.785058    18.310913
Na    28.971118     0.457364     1.938172
Na     2.077287    12.544866     9.874054
O     24.297144     3.477683     9.409969
Si     0.337483     7.586097    18.866483
Si     5.797144     1.289215    15.723603
Si    17.451412    14.168566    20.318478
O     26.174311     4.047906    31.691545
O      2.517753    31.940258     2.443052
O     19.424574    28.712381    10.014466
O     21.667662     6.256798    33.944562
O     35.001120    12.820777    15.637189
O      4.926947    22.940913    33.352140
O     30.319449    35.306226    21.941925
O     19.108897    16.236391     4.214234
O      2.689960     5.821334    29.473113
O     14.469526    18.223144    34.759574
O      0.275956    33.866445    14.489063
O     22.079218    15.312922    29.464585
Ca    21.716541    19.813055    31.063225
Si    23.813218    15.554361    29.264109
Na     9.062723    15.173673    17.456523
Na    19.324553    16.466213     8.682449
Si    27.176572     3.720260    33.136617
Ca    29.457215     2.105846    19.788453
O      2.873643    13.214472    24.615935
Na     5.053779    11.192829     9.752502
Ca     0.126972    32.911931    22.523645
Ca    32.108929    14.114222    24.461239
O      8.022809    30.085710    15.146680
O     34.702977    19.394335     4.230121
O     30.909354     9.669549    21.244666
Na    29.832002    28.029639    11.055746
Si    22.509491    11.801253    27.167600
P      4.791944     2.391499    33.637431
Ca    26.375104    24.120366    24.274093
Na    12.558305     0.011038    17.178708
O     12.626804    33.618019     0.249521
Na     7.363143    20.949650    13.020582
O     11.943813    16.049457    18.621391
O      8.156335    27.608693    18.225053
O      7.474402     9.770729    13.638105
O      2.819447     2.448382     2.377720
O     13.339966    12.111650    12.424747
O     19.442348    11.202992     7.202612
Si     7.823923     8.395144     1.019534
O     18.291085    30.846848    16.380651
O     19.776259    32.404221     7.072750
Na     7.144625    20.441783    14.891078
Si    33.633318    13.477597    26.551723
O     17.564091    14.895796    13.218424
Si     5.921112    21.145213    31.214751
Si    20.964603    24.400238    14.075279
Ca    11.260106     1.138476     9.295223
O     26.821891    33.901293    27.121732
O     22.200129     0.128348    13.236018
Ca     2.281519     6.037254     4.015530
P      2.071953    20.651861     0.117356
O      1.577708    34.107867     7.220869
O     13.329765    10.226386    15.619828
Na    22.055157    22.209649     1.513181
O     10.889528    28.774330    28.148328
O      8.015409     1.865485    20.347821
Si    35.107911    21.054310    31.277501
O     15.224794    13.802990    19.484995
Na    11.653747    17.026664     4.254414
O     19.690553    20.976027    30.391432
Na    17.949133     5.460908    33.512511
O      3.183305    22.706430    33.061687
O     17.064663    33.984254    16.742662
O     14.632598     6.562158     9.657321
Ca    30.508458     4.672014    11.378730
O     26.054223    17.289513    28.052966
O     13.376417    22.117573     9.440146
Si    26.926007     9.277867    29.699813
Na    23.109594    33.774325     7.848946
O     19.563609    10.762556     5.757272
Na    16.078469     3.915870    22.001250
O     14.892665    23.048575    29.270631
O      6.849781     9.381343    35.248299
Na    16.658073    14.635646    11.308259
O     35.120232    31.249920    27.259851
O     17.112815    15.033714     9.581876
O     32.554117    27.320996     1.861482
Na    18.841006    13.732126    12.463738
O      7.355458    12.046746     4.498203
O     17.426085    10.426063    12.890441
O     24.746061    20.566915    24.029007
Si    13.555544    32.613278    17.942411
O     31.729159    34.474416    25.901526
Si     3.010900    11.707908    25.111257
O     33.470831    16.677585    26.561863
Na    24.981603     4.746208    30.410940
Na     0.872494    31.120313    13.734944
O      5.771281     3.469336     1.976126
O     20.244634    21.043351     1.526468
Si     9.772946    24.721094    30.388473
P     17.812939    10.767000    17.541330
Si     8.241051    13.189303    12.766526
O     29.457546    19.787955     6.133724
O     25.037003    16.507311    13.694267
O      5.406705    13.536183    16.078896
O      1.025722    29.089948    18.109394
O      8.442264    23.249535    34.001487
O     16.342615    35.269631    32.397511
O     15.392122     3.446308    30.006390
Na    24.258818     0.488405     6.758601
Na     4.043193    25.793160     0.575332
O      6.156044    15.374310     9.623816
Na    26.592718    21.556124    26.829979
Ca    10.065233    25.320399    28.534346
O      4.023682     8.945197    28.402884
Na    22.974908     8.715939     7.849841
O     30.891038    26.739950    32.807771
Si    14.215154    24.197455     5.416023
O     34.098921     4.269670    35.492545
Ca    34.562304    23.261842    31.017991
Ca    24.754065    25.918342     6.157855
O      9.434940    26.550403    24.520599
O     29.841351    22.874992    20.489430
Si    15.390190     7.531341    14.750816
O     10.954014     4.800662    20.297686
Na    10.109590    32.048292    23.250572
Si    24.537188     4.831733    18.613334
O      4.488568    33.006374    31.694620
Ca     0.585301    32.717804    26.786826
Ca    27.359298     1.329259     9.782375
Na    10.733907     1.108031     0.243768
O     16.283981     5.630369    17.062713
Na    16.725869    27.846693    22.590261
O      9.089038    22.481696    32.570916
O     15.559997    28.505506     8.423086
Na    24.670808    25.505520    19.692831
Si     7.244284    14.940813     6.329216
Ca    27.729766    31.257569     6.997024
Ca    11.103693    27.062085    32.967707
O     28.272166    21.369516    27.477879
Si    15.247240    19.804763    23.741891
Na    24.859227     0.404665    32.343169
O     29.780150     2.240783     7.780039
O     15.711360     0.378890    16.616551
Na    31.609118    26.977232    14.412881
Si    27.724151    26.766211    28.637930
O      5.117208     7.605480    23.317219
Na    29.909165     4.120203    33.214271
Ca    33.310830     7.020301    34.060168
O      7.379490     6.702184    16.942357
Si     5.843509    27.497385    17.742423
Na    30.788310    33.871309    16.561252
Na    14.692201    11.382283    14.441408
O     31.808215    20.587278    30.435929
O     20.670961    16.318061    12.746811
O     33.042195     0.854828    19.253051
Na    10.153310    24.059842     9.472536
Na     7.766813    27.540394     1.211831
Si     9.467506    33.495952     8.283048
Si    23.732015    29.828557     7.872540
O      7.310795    27.221675    34.606678
Si    34.004694     8.534416     3.262888
Ca    10.783214     4.166608    25.153365
O      9.781787    24.720471    30.368757
Ca    12.359307    28.454790     6.419458
Na    31.319465     6.348712    13.844927
O     11.323141    19.283031    20.796604
O     24.751415    23.186898    23.804143
O      3.561553     5.725242     7.527046
O     24.152387    28.410983    16.265611
Si    33.341402     4.746975    33.911420
O     13.272450    16.605038    22.149763
Na    11.213603    34.391554    20.166506
O      5.249062    31.667111     5.166395
Na     8.310294    29.741576    19.946871
O     25.609835    23.549093    26.118737
Si    30.098864     0.940176    16.072066
O     34.837585     6.556005    17.172396
O     26.798065    28.381991    11.021224
O     32.159807    19.900535    13.086487
O     34.446053    23.058236    11.037897
Na    16.514415     6.600976     9.330183
O     32.786079    27.717559     5.939953
O      2.805826     0.431254    24.487397
Si    31.605373    31.990443    17.543056
O     23.786585    23.370146    28.629578
O     22.857559    35.474622     5.737417
O      9.246794    27.348659    32.185756
O      6.865840     9.266200    33.129784
O     35.129665    34.766006     0.615625
Si    25.293773    16.154291    22.458648
O     21.603915    25.362749    34.552458
Na    30.340566     8.319039    10.812544
O     16.384168    31.899523    17.907773
Ca    29.026632    22.120403    16.901762
Na     7.723833    26.459044    21.726708
Na    19.665295    35.416623    16.320097
Si    22.236027     4.184160     4.861839
O     32.053374    22.028245    16.423846
O      0.090895    14.355673     7.467640
O      5.461060    33.481678     0.866998
O     33.380171    15.206169    34.142500
Na    26.376916     1.048256    17.136285
Si    31.715614    16.810799     2.338629
O      3.942377    23.372686     7.972787
Ca    26.087255    30.904656    34.058295
Si    22.013958    26.751083     4.608329
O     33.536062    13.632797    27.153520
Si    30.757903    26.033655    28.438662
O     16.842309    30.681116    23.962713
O      2.627539    25.114773     4.549969
O     15.435210     2.226326    18.271847
Ca    11.872656    32.663374    28.045658
O     18.460494    33.987636    32.557647
Na     0.417833    24.370401    22.832707
O     16.403244     5.649827    20.154819
Si     0.200871    12.708466    22.263610
O     26.526388    35.310296    33.912191
O     33.225061    17.301209    13.249442
O      1.244838    31.518571     9.606422
O     29.930595    17.312958    29.482505
O     27.416311     3.833762     7.626263
O     12.875071    28.818495    13.266822
Si    35.339600    25.122875    21.005641
O     25.824811    20.000298    27.161856
O     23.682961    11.137272     2.885338
O     23.291334     8.761652    22.692595
O     27.175528    25.582150     1.658005
Si    34.224780    15.675555    28.145424
O     28.101868    27.772190     7.584829
Na    28.228711    10.246868    28.429683
O     27.901246    32.453125    28.492017
O     33.086791     5.860892    31.845241
O     16.007388    34.426306    22.230903
Ca     9.428927    25.243876     1.835593
O      6.485771     3.745796     7.719427
Ca    14.436618     5.765913     5.009352
Si     1.095288    26.684100    30.781323
O     12.855789    14.773372     5.881133
O      6.415421     7.527937     2.855182
Na    21.287262    22.025867    18.500472
Ca    23.373424    21.530983    21.771307
O     21.581981    11.979752    16.222027
O     14.971189    13.638346    35.190863
Si    15.835719    12.739428    32.763692
O     31.351490     5.093512    21.953836
Ca    30.298486    28.549085    18.538717
O      4.466670     1.306835    23.412093
O      6.948062    11.043756    19.920101
O     28.898660    33.338603    27.276081
Ca     3.447157    25.441551    31.484655
O      8.926935     1.189714    15.852513
Si    10.221545    10.758634    23.494656
O     13.604519    11.177715     6.345027
O     21.162967    16.761707     8.480768
Na     6.752411    11.975650    32.929848
O     21.724090    20.600498     5.078116
O     34.127842    10.821653    16.051766
O     11.207828    35.269464    32.198553
O      3.105373    35.341635    15.350784
O     24.997991    16.197109    10.171962
O     23.016298     0.871545    16.252247
O     18.585799    17.144949     1.016534
Na    31.615191    33.956734    27.765071
Na    14.465609    18.597346    32.345812
O     10.484487    10.100256    24.864539
Si    10.749561    19.712146     3.478738
Ca    21.234599    24.517520     5.377762
O     11.354255    21.352627    24.853980
Na    12.193972    33.796438    12.576790
Na    26.651363    11.103153    10.868619
O     30.466223     6.278115    16.610029
Ca     2.292696    32.850361    33.260086
Si    24.460370     3.310487    35.162792
Si    14.821123     7.832351    28.841099
Na    21.887359    29.023367    10.949985
O     27.542065    22.811560    17.914505
P     21.256176    29.972863     3.443540
O     30.783277    30.960258    34.402463
O     33.080711    33.645985    14.249462
O      5.099507     9.123147    34.916022
O     27.665188     3.926490    29.966363
Si    15.766650    11.214422    21.297077
O      5.880199    17.610961    33.559795
O     33.221666     4.037070    16.060304
O      3.117118    30.844454    24.247024
O      5.564123    28.068616    30.027246
Na    33.752410    29.135504    23.306870
Na     1.269131     4.178699     3.978253
O      0.142410    12.714652    22.214687
O     21.394875    16.869889    32.985964
Ca    30.141982    17.258530    24.256807
Si    24.758335     4.382212     7.114653
O      1.976040    14.662693    14.413784
O     16.134147    28.166411    29.051488
O     14.981489    30.968294    34.874515
O     26.797846    14.880098    23.046743
Ca    17.462608    26.507471    27.649397
O     28.433019    16.962642    26.686553
Si    28.165220    33.821530     9.317774
Ca    33.069475    25.206286    29.213550
O     13.112230    20.083102    11.277300
P     21.786322    22.336028    15.042559
Si    31.004033    23.731931     4.112834
Na    20.291562    24.586239    35.351093
Na    11.525618    31.973808     8.400859
P     34.102974    31.807715    34.420480
Ca    23.690679    28.538595     3.056667
O     20.488678    34.840400    34.113031
O      6.666465    24.393207    13.400013
O     15.916495     5.418185    23.432764
O     14.830582    24.503248     5.181751
Si    28.111235     3.213486     7.330080
O     10.613629    13.474485     1.657680
O     35.240421     8.904803     4.168382
O     29.782280    17.414824     0.057639
Na     0.555348    28.785969    12.319001
Si     2.011469    33.117519    14.401969
Si     5.548934    27.750667    30.402928
O      5.853027    29.823105     6.058978
O      7.807459    32.270977    17.057172
O     21.912031    18.454742    34.856582
O     23.480510    28.201246    33.609632
Na     5.454822    29.658824    18.643139
O      0.437622    31.061876    11.933744
O      8.820544    20.821436    33.225875
O      5.545698    17.058035     7.789623
O     30.014687    15.981617    11.111106
Ca     1.695803     9.366497     2.226546
O     19.860849    23.090379    14.561686
O     34.313590    27.699005    24.135767
O      2.326078    34.551102     3.306831
P     32.542146     0.142836    33.387966
Si    32.621402     5.891323     9.992916
O     28.185944    29.808960    16.481065
O     31.033069    34.186316    10.957882
O      6.370814    26.974687     3.784042
Na     4.909311    24.761771    13.918446
Si     1.195639     5.262386    32.855277
Na    11.748192    14.754069    21.889743
O     31.841049    25.942434    30.750082
O      6.621475    31.128669    10.522134
Ca    34.384880    27.611455    17.800799
Na     6.788698    21.127172     8.994222
O      0.605263     0.418266    10.543739
O     32.124134    32.740558     6.886036
O      3.033377    20.193722     1.634836
O     15.119486    31.338199    11.263953
O     13.332490     9.877936    26.004477
O      3.011403     4.512242    28.881695
O      8.539784    26.109730    35.134001
O      2.746133     7.286766    15.350579
O     17.891334    33.271478    13.992199
O     10.876355    31.512911     0.949599
Si    27.881193     2.764850    17.367066
O     29.126383    19.303587     1.480877
Si    24.023217     0.459861    16.360910
Ca     4.740077    14.241784    35.006464
Si     2.262914    12.678595    28.069260
O      8.821412    10.858280    17.139131
O     31.155907    10.530780    27.971963
Si     7.583868    28.005796    30.177463
O     32.209518    19.937158     1.617462
Na     7.175051    26.288651    15.213312
Si    15.136334    16.671668    35.295839
O     16.075647    28.256475    15.671892
Na    18.548002     8.670019    13.283899
O     25.793417    29.838087    28.302875
O     20.357778     1.788814     4.329501
Si     1.516913     5.733894    24.516545
O      6.563172     9.213348    17.022165
Ca    22.405108     4.777935    23.453359
Ca    17.195030     2.910898     7.451226
Na     0.143895    17.198386    31.412536
O     12.005331    26.606121    22.365921
Ca     7.007721    13.784288     8.928975
O     15.731805    11.069509    17.758450
O     11.374336    31.563432     5.909607
Ca    24.023594    20.066832     0.085583
Na     6.831751    34.573442    35.483585
O     12.913848    27.241328     9.947813
O     33.578276    18.306762    19.814108
O     25.096239    15.979323     9.010087
Si    31.693707     4.967678    31.222147
Si    22.661481    14.798531    26.638774
O     33.764517     4.632291     6.719088
Na    24.746554    18.725039     4.695956
O     20.456851    12.758061     9.803858
O     23.413340    27.934645    14.118846
Na    28.493220     5.801361    28.839230
Na    28.772443    25.170594    23.138154
Ca    11.067599     3.569377    14.815655
Na     9.835752     0.086684    17.575141
Na    32.237441    19.314278     3.965659
O      1.885063    32.196579     4.882564
O      0.190169    16.170611    27.264146
Si    19.381495    19.079268    18.426137
O     32.516047     0.147247    33.440047
O     13.098389    20.118771    33.641058
O      7.387998    22.132113    11.593549
O     14.570068    23.223683    12.685963
O     10.263230     3.643976    35.405677
O     26.212324     7.803562    31.561532
Na     1.921998    15.051946    20.249608
O     22.381498     2.705859    21.928299
Si    10.798309    31.353165     1.020775
O      2.054426    10.830137    27.644745
P     26.633187     4.633261    28.629307
O      9.621803    31.987461    15.832861
O      4.301520    16.356341    21.981806
O     25.685805    10.005172    29.393204
Ca    20.581752    30.159602    22.819876
O     28.877238     6.332212    31.258846
Na    29.925470    15.931595    30.882145
Na     6.303782    12.723714    17.512355
Si    22.712399    20.570922     5.538045
Na    29.414162    35.435120    13.316807
O      8.138342    34.882637     7.878897
Na     3.451285    27.910818     8.255493
O      8.776170    32.970203    28.539183
O     35.211696    29.808482    31.537915
O      7.758425    19.638270     2.132680
Si    25.269097    19.975888    17.373466
O     10.337001     8.301349    10.773413
Si    34.510782    35.145747    10.379492
Ca    28.356641     8.009426    30.406463
Si    31.112352    21.222446    12.796163
Na     6.033022     9.361661    29.889943
Na     9.520547    18.149585    29.079544
Na    30.486375    25.911794     7.525212
Si    13.407539    25.395978    31.860347
Na    11.857800     1.376516    24.026487
Na    34.347992    19.349155    31.587686
Ca    19.886460     5.326449    28.919160
Ca    33.399165     3.308416    19.293261
O      9.011335    30.144219    23.111268
Na    21.798958     1.924834     3.013237
O      1.116314    13.338741     6.921264
P      1.123220    13.308276     6.899513
Na    21.792326    27.557275     8.619859
O      8.979189     2.210365    16.563182
Si    18.391672     3.756929    29.653720
O     30.201423    10.658493    18.181960
O     23.982265    11.738569    26.074970
O     23.882528    24.154943    34.168744
O      1.821333    21.701813    29.054653
Si    23.057338    29.049632     6.064945
Si     3.239271    23.953551    34.142348
Si     1.650287     8.392270    22.270582
O      9.886251    11.730069     6.873287
O     33.684159    15.302710    19.318203
O     16.441373    33.904689    20.865625
O     17.530197    10.730993    15.817753
Na     3.901230    28.033261    28.657425
O     28.461196    35.025546    28.958805
O     21.762538     8.225184    15.045468
O     21.195080    29.952309     3.430816
O     18.950083    18.891962    21.872860
O      0.717282    33.359210    29.591425
O     17.223966    20.491767    31.393989
O     13.602717     5.711282     7.732414
Na     9.386632    28.240633    28.684579
Na    12.886533    12.427568     7.695172
O      1.524628    28.003766    24.680748
O     23.180984    14.301807    13.138576
O      2.916525    13.023375    18.513750
O     24.286809    24.022761    26.736008
O     27.015441    12.797534    30.860412
O      4.443265    24.453458    12.027786
O      5.327219    32.511832    15.032144
Na     8.026022    17.111879    31.365466
O     35.094810    21.008981    31.294103
O      4.374909     9.133631    31.541299
O     24.544217    12.105526    32.383565
O     24.719354    14.342668    22.598044
O     13.034549    33.821240    30.071743
Si     5.566158    19.067551    32.208172
O      9.981971     9.462673    20.243417
Si     3.850924    14.463222    32.830334
O      1.254472    11.223014     8.553373
Si    24.662288    33.931883    21.174630
O     13.189762    29.392511    17.860447
O     34.744187    22.563615    13.783711
O      6.722864     8.102604     4.173466
Na     5.698106    31.386055    23.665139
O     25.664855    28.934094    31.879695
Ca    16.704777    15.131891    34.573027
Ca    32.724157    21.162858    18.154124
O      4.148357    35.493188    17.656293
O      1.012471    13.991576    33.077166
Na     9.854575    10.782551    28.527661
Si     8.418700     1.618880     4.896289
O      4.908852    27.336887     9.141288
O     33.141986    35.294851    23.121743
O     25.349731    27.252472    19.649763
Si    35.266100    34.528524     0.747760
Ca     8.291228    27.284971    14.110063
Si     0.917601    34.065131    17.358811
O     11.109259     1.744883    14.082552
O     14.515689     2.976110    23.984435
O      7.218974     6.898062    29.335105
O     22.301457    33.743060     9.923823
Si    10.835143    20.882938    14.458933
Ca    17.530377     3.187039    32.406738
Na    10.624678    17.286872     1.880001
Na     4.425716    27.130993    15.826763
O     31.767482     8.716816     1.517510
O      8.278988     8.663124     1.287824
O     29.539762     7.088875    14.235372
O     31.204049    18.690826    22.781088
Na    17.532913    17.460265    35.076091
Si     3.414469    23.649456    14.796549
P     29.621614    32.348220    15.176662
O      7.859019    19.008119    27.889123
O     30.795341    21.772918     7.426388
O     15.496331    32.945143    21.414977
Na    28.544819     3.556239    20.565420
O     28.667856     7.826927    11.832079
O     13.744178     6.882726     6.680400
Na    34.258949    23.177201    19.822270
Si     0.412815    13.952521    30.778515
O     15.124898    30.133788     8.004880
O     12.319226    11.802215     5.625696
Na    16.810172    17.065255    31.279123
Na     5.695637     0.816568    19.887363
O     10.402747    13.770494    17.728160
O      5.319711    25.974839    30.661263
O      7.741413    26.384775     2.741655
Na    22.987309    31.451396     1.899557
Si    30.300459    11.928658    30.423982
O      5.417332    26.011975    15.150162
Na    27.505126     2.232214     1.307619
Ca    34.301638    28.296389    12.752677
O      7.117391     5.265029    17.116020
Ca    32.015516    25.730328     2.908998
O      7.406664    12.757821    14.257800
O      4.667110    25.379853     2.323521
Ca     3.725196    21.682792     0.640264
O     31.580936    19.065366     7.243231
Na    22.806027    10.258624    15.287473
O     34.528996    26.068154    18.604543
O     33.035534     2.954335    23.914285
O     23.465226    22.461361    10.170483
O     31.653018     5.037688    31.212264
O      7.851045    17.104238    28.329141
P      8.971509     1.753632     7.516355
Na    28.297559    29.147648    21.252121
O     20.114622    24.574086    23.751525
O     22.702426    26.884434    27.958424
O     31.157864    18.400800     2.711535
Si     5.098500    10.635758    23.617882
Na    10.912019    21.451827     8.636430
O     10.574781     9.108470    22.488829
O     20.204697    13.646303    21.764354
O     31.382002    18.587324    30.145637
O     14.388675     4.160511    21.902905
O     13.948596    29.351807    27.811972
O     22.511716     6.880278    13.788102
O     22.946926    17.071479     9.018046
O     14.066045    14.199464     4.638137
O      9.633099    11.613449    22.004271
O     14.745441    28.058255     6.891285
Na    24.839511     5.945557    11.880837
Na    16.300740     5.924331    13.067278
O     33.244918    35.041449    19.732924
P     30.377195    20.216213     7.611565
O     29.677989    30.949735     8.306360
Si    22.584570    12.645858    23.679676
Si     2.221550     1.783846    35.309429
O      7.163433    31.465581     0.645803
O     19.536775    34.756886     0.934173
O     18.773614    14.859858    19.040878
O     16.074651    27.670774    34.990888
Na    35.490203    23.604407    15.185610
O     33.131936    26.371653     9.101533
O     27.600016    15.678615    35.089348
O     20.927977     6.814510    11.687936
Ca    23.879484    18.952915    28.279425
Ca    25.072778    10.117097    23.766925
O     19.218813    25.940533    22.781752
O     29.394496    13.926125     3.800158
Na    26.826980    12.967446    35.131501
O     14.144954     1.020323    14.372378
O     16.359566    14.938825    18.855324
P     23.042717     9.523319     2.611466
O     27.336240    25.221160    25.942062
O     16.774266    17.926100    28.496603
O     17.787297     8.505801    11.137087
O     27.070644    22.201071    23.227829
Si    22.902262    23.805563    15.117816
O     20.814806    16.097701     3.937979
O     23.865265    16.996370    20.555520
Na    20.498593    25.087720    33.305255
O     26.332775    15.358801    20.941406
O     27.747758    25.069936    28.839013
Na    10.470053     7.075754     6.012069
Ca    25.096387    13.275297    30.531513
O     11.207152    20.451892    22.466042
Ca    15.376458     9.015788    17.814456
Si     1.619832    32.857043     3.260727
Ca    34.542798     4.787205    27.011835
O     30.138903    27.357795     0.390534
Si    13.521827    16.148526     6.353545
O     23.777743    17.109143    28.842578
Si     8.972072    30.061776    23.104985
Ca    16.276903    19.617206    29.498808
O     20.533374     8.299182    23.005300
Si     8.721702    10.735759    17.108183
Si     0.043515    27.521718    18.557059
Ca    29.541115    17.533853     1.940423
O     17.559533    14.229274     8.845167
Na    26.641916     7.049255    34.645287
O     12.016867     6.358067    23.096236
O     31.936526    27.255916    28.178245
Si     8.840403     9.009181     5.683551
Si    34.364346    17.798059     4.917029
Si    31.742516    26.575712     9.861195
Ca     6.888277    28.690926    11.520460
O     22.393621    30.473673     4.771627
O     17.773302    34.146225    18.654715
O     16.232241     7.696340    20.287659
O     11.085560    33.082778    10.422204
Si    25.471481    16.078771    12.071297
O      4.376424    33.777294     6.870311
Na    14.600517    21.191733    29.175127
O     32.177574    16.203437    26.424166
O     17.325141    25.107964    31.862745
Na     2.184240    12.359568    32.844178
Na    25.224907     3.685850    26.556447
O     19.160407    27.901938    12.727823
Na    31.267778     5.081812    18.110747
Na    10.744975    17.119571    33.731999
O     14.926040     6.889864    30.463479
Si    26.531651    27.458729    20.112019
O     19.461231    17.748714     1.803087
O     20.318306    14.411096    14.983045
Si    14.612262     5.273148    20.277845
Si    18.579404    17.578715    18.790786
Si    10.564497    20.081287    22.357708
Si    30.982254     4.274524    25.454775
Na     0.411654    20.244669    16.964545
O     22.552839    10.047869     0.773668
Si     7.113242    26.184976     4.308569
O     27.433176     3.857165    33.097844
O     18.530573    17.185791    25.002983
Na    11.623460     4.683997     6.435160
P     17.545232    14.279661     8.814525
Si     7.867274    19.740935     2.355922
O     20.803490     6.156379     4.849401
P     26.888955    28.401123    11.086192
Ca    19.062348     2.920937    15.923715
Si     1.024105    13.943463    33.149307
O     11.644229    10.120571     4.709735
Si    18.304858    30.868374    16.277661
O     31.320616    11.976132    20.242343
O      8.780674    14.784501    12.393864
O      7.187493    28.671429    13.606676
O     11.016525    18.665116     4.937367
O     19.708984    11.233886     0.613720
O      2.246287    12.803498    28.113045
Na     2.189939    14.556309    16.752937
O      9.477890     2.222466     8.123617
Na    26.415973    27.624510    14.437941
Si    33.063398     0.845971    19.326600
Ca    21.113647     9.909822    20.642164
O      0.418623    23.322890    21.077191
Si     5.748824     5.599767    29.495704
Na     1.816782     5.655467    22.115417
O      3.779012    17.499735     9.465474
O     23.715940     4.806987     9.632047
Si    31.319031    26.130383    34.902351
O      4.667491    31.413115    29.556623
O     34.423545    29.139811    17.015681
O     18.527740    17.635976    19.068919
Na     4.884351    25.802419    33.963877
Si    29.108793    11.283304     5.294469
O      7.508549    18.430853    29.578261
Na     4.728207     7.677035    17.945056
Si    13.618768    14.727113     0.403280
O      4.032186    12.720425    32.470730
Si    22.948660    34.635841    22.110424
O     19.721383     5.162968    26.264354
Si    26.335243    21.027967    23.476259
O     24.791003    31.025939     2.485755
O      1.563308     8.386921    20.463935
O     23.845591    22.169475     7.430264
O     18.761314    14.828020    23.520234
O     29.859428    19.043290    29.578631
O      4.899996     6.948332    16.298671
Na     8.498317    13.730594    10.916158
O     31.839763    28.840151    31.118095
O     34.086995    25.125052    31.096025
O     18.152102     0.046007    35.452570
O     32.828370     4.679403     4.670666
Ca    31.966817    26.772929    18.281407
Si     1.431559     6.097246     1.565677
Ca    35.034990    27.683779    15.966083
Si    23.232665    23.092166    24.148912
O      1.190813     0.920897     0.199943
O     33.277948    33.101978    28.397824
Na    28.736708    21.119595     0.280626
P     19.680818     5.134801    26.217855
O     16.303579    13.213340    14.904047
O     17.561151     9.470344    31.890253
Na     3.197856     6.445607    27.829888
O     19.587031     7.247358     6.347608
Si     5.805040    32.083162    16.621176
O     21.835725    34.722363     1.322268
Si    11.104432    34.146294    32.153704
Ca    13.450308    17.022810    17.646196
Si    28.283293    27.832367    22.715776
Na    13.244628    21.060320    31.946120
O     17.356309    32.662895     0.799860
Na    22.691081    22.641246     5.120370
P     18.084513    12.659070    14.699878
O     13.246742    31.672567     0.074816
O     19.848873    21.762048     9.545672
Si    16.616491     4.581140     4.928983
O     20.320678    17.725785    15.214640
O     32.662331    29.694350    35.444280
O     34.705505     9.536708     9.969486
O     19.543797     5.655586    27.131679
Na    33.794462    27.239792     0.162015
Si     7.647217    20.730189     6.976563
Si     6.537652    16.121586    10.527563
Si    16.402710     8.083455    22.140579
Na    33.423272    10.607357     5.779591
O     25.572467    30.034886    17.485740
O     27.849017     9.947583     5.617997
O      3.639342    10.000601    10.151572
O     29.642869    14.812998     9.926483
O     17.199388    31.752565    28.059666
Na    35.078999     2.768261    28.332057
Na    12.975097    35.475003     3.710878
Na     4.722972     2.167501    31.017257
O      7.797903    13.683955    15.408761
Si     3.387024    21.702102     8.145589
Si     5.323646    12.815643     2.626281
O     18.304519    15.295914    34.631394
O      2.373478     6.462321     0.697817
O      4.646219     2.908271    15.635023
O     14.261675    16.789285    10.421079
O     21.330971     5.100169     3.249842
Na    20.724125    11.355936    25.225202
Ca    15.477594    15.764317    20.486779
Si    25.950378    22.176503    29.983871
O     30.534482    25.117188     4.617136
O      1.920406    34.593814    11.174790
Si    34.592017    11.335338    16.165890
O     10.932877    18.144491    19.527427
O      8.285763    24.800249    22.237987
O     34.663759    16.726011    17.563415
Na     6.156970    29.139167    20.148211
O     31.621201     4.210852    32.306925
O     11.781500     3.989395     2.154900
Si    26.379638     0.571066    34.847769
O      3.317938    22.050537    14.018591
Ca    28.026011    15.634648    24.308637
O     19.959319    34.756167    11.903067
O     13.278407     9.228083    23.071816
Na    34.686351     0.659199    20.268322
O     20.093886    23.723484    22.499568
O     11.925558     8.208455     1.300291
Na    17.486710     1.141064    12.511880
O     25.541527     6.796986     2.814982
Si    15.503691    14.825329     8.852892
O     34.500440    20.635179     8.710227
O     21.753143     4.450057     4.534445
Ca    10.983341    28.847510    30.038751
O     35.333789    25.171769    15.854271
Na    22.499594    26.938221    16.472245
Si     5.522007     9.004737     5.301619
Si    19.019305    34.347716    34.377717
Si    14.469559    26.221923     9.196878
O     13.904729     3.026254    12.867817
O     19.352753    19.079104    18.390477
O     27.759247    18.789163    34.885780
Si    30.287761     8.451395     1.965382
O     17.591526    15.445555    27.328390
O     19.526482    11.784501    19.998510
O      6.219021    23.898299    11.689759
Ca    33.150467    18.689963    33.590379
O     24.466534     3.289156    35.392941
Ca     4.400876    34.389096    16.152787
O     13.450937     9.646000    18.429721
O     32.568226    24.966403    32.891268
Si    30.258152    31.793744    35.325235
O     24.781817    11.045059    30.721866
Ca    15.909545    12.880846    17.540532
O     19.268510    21.970432    10.559051
O     27.942601    34.752259     2.992288
Si     7.560577     1.248252    19.279393
O     34.155902    23.703411    17.308582
O     31.448757    17.792134    27.652284
Na     8.207985    32.867665    21.917523
Na    15.741590     2.087536    26.527188
Ca     4.903608    11.779878    20.780857
O     15.423245    19.599836     5.208861
Na    15.985252    23.011298     9.905051
O     34.182387    35.333866    32.739828
Na    11.321184    33.819275    23.902537
O     31.126422    28.407180     7.963514
O      4.398399    15.577933     7.972752
O     26.528676    18.985203    26.789920
Na    25.726280    11.074773     1.487881
Na     1.881881    20.958571    13.128290
Si    13.465804    22.212939     9.659433
O     23.157399     4.883840    32.214996
Ca    31.370951    18.335102     0.149190
O     29.950238    17.884278     3.951773
P      5.355615     3.612360    23.605818
O     35.503185    13.767591    30.355674
O     26.662390     4.455523     0.249898
O     13.592561    16.223345     6.418656
Na     2.647571    28.348834    17.495640
Si    28.559996    35.311797    10.514524
O      5.946594    29.072786     9.375435
Na    16.282148    21.326281    13.300377
O      5.715407    16.835672     0.713234
O     20.152276    17.441697    23.772139
O     11.104413    15.429116     9.213887
Na     5.724679     4.670295    20.671703
O     22.154156    22.249799    15.414986
O      1.483744    25.221514    30.791675
O     34.792590     3.013599     4.777108
O     27.856026    20.107699    23.536316
Na    12.616086    15.737716    29.788426
O     33.753048     1.457069    25.962193
O     29.187651    11.458972    24.070743
Ca    34.446839    27.684601     1.796723
O     12.379627    24.794852     0.987643
O      6.036258    33.940448     6.448181
Si    12.304968    21.375236    23.559149
O      3.880378    17.644959     6.819333
O      0.222762     5.419521    23.263550
O     16.532968     4.927234     5.063027
O      8.625534    33.952561     8.236235
Na    21.455678    11.850609     1.957498
O     33.811563    16.996000     6.277896
O     31.331775     8.001200    20.670988
O      1.537381    11.915809    26.107730
Na    32.574885    34.300386    29.503204
O     19.194741    29.017849     1.548440
O     30.697332    18.158803    25.976671
O     26.389384     2.642976    16.714053
Ca    17.346946    18.539435    30.655086
O      5.555822    10.600563    22.900722
O     20.860789    21.318499     3.558381
Na    16.294465     6.958399    34.611756
Si    16.272183    13.605822    13.111724
O     14.221100     8.796381    29.149415
Na    13.977521    32.627365    22.557417
O     15.901419     3.052465     4.999109
O     13.696906    26.566719    31.924759
O     30.963467     4.134778    25.103853
Na    17.235858    15.419760    22.801261
O     17.446447    13.032546    19.031381
O     19.228521     5.865980    11.141896
P      4.310950    16.358869    22.035447
Na     2.240430    24.312345    32.516193
Si    28.536283     9.522247    11.607623
O     18.434004    22.188516     0.002605
O      1.903727    14.560940    11.628074
Na    32.326589    21.080614     5.868251
O     22.740878    25.103600    22.993074
Ca    13.188047    29.753279     0.828907
O     12.369942    21.299951    23.535025
Na    25.020690    13.952891     8.252332
Na    29.100114    11.723275    19.833620
O     23.998239    15.288397    29.481102
O     18.346392     4.110442     5.272194
O      1.382291    11.936440    29.688775
Na    15.218980     7.497033    32.525902
O     21.439472    22.458873    14.796890
O     22.516796    14.943143    26.680091
O     25.994868     9.674503    15.484649
O     33.997669    13.766148    24.721357
Si    16.231607    23.453219    19.693032
O     23.745093    10.934107    28.520613
O     14.026580    16.960821    30.793107
O     35.202454    13.846649    25.619965
O      7.100984     0.096039    33.941919
O      4.989086     7.594282    12.946595
O      2.491137    32.343737    26.109453
Si    17.855678     4.368024     9.452849
Si    28.966356    14.407651    35.185899
O      7.486833    28.161074    20.637661
O     13.495931    28.265787     4.505205
O      9.735247     4.773714    18.863512
Na    23.995565    23.839101     2.773390
O     31.554267    31.987466    17.629499
O      5.183158    12.800316     2.643027
O      5.015133    31.857425    16.306102
O     32.445083    27.512387    34.255277
Na     2.358416    29.397125     4.530797
Na    32.982930    10.680780    24.168699
O     27.428776    30.285460    26.213165
Na    29.942278     4.281413     7.383004
Na     4.995407     9.376228    13.687128
Ca    14.466711     7.917371     2.933207
Na    23.578062    23.650497    30.969104
O      5.106904    22.805376     4.784229
O      7.998145    15.149747     7.856192
Na     6.822765     9.419994    24.075117
O      5.534450    31.192440     1.882313
Na    21.748504     6.131620    21.049061
O      1.959744    22.099487     0.846256
O     29.245196    26.810580    14.721666
Ca    24.160341    21.950763    27.825275
O     25.405364    33.371074    27.996534
O     23.352190    23.763815     0.080501
Si     1.815768    21.726982    29.088211
Si     5.222884    30.942141    28.558579
O     30.652927    22.184931    19.265951
Si    20.799464    22.765381     2.659573
O     20.001454    23.358815    17.675373
Na     7.086160     2.253959    17.489787
O      6.908321    25.893919    19.537666
Ca    28.979993     4.711307    31.118992
O     18.501474     6.042901     4.470437
O      1.505285    19.621242     4.474417
O     32.399572    25.603089     0.070712
O     32.733197    16.015028     7.867582
O      8.711585    11.482776     6.476453
Si    10.312618    24.003013    29.796820
Si    20.075091    19.488685    29.697056
Na    26.152015     5.647147     5.717460
Si     3.047658    16.120025    14.661733
Na    14.375233    34.666122    28.836563
O     27.742225    18.920836    21.412538
O      2.942362    20.361287     6.668559
O     16.910258    13.385578    33.181578
O      7.287859    30.305584    22.795216
Si    25.682158     1.562456    20.786752
O     11.946887    13.567737     8.774257
O     12.574385     6.331455     5.563446
O     23.525135    20.355958     5.944389
O     30.341897     8.488245     1.992184
Na     8.560506     6.401456    11.341141
Na    16.311148    17.103314    24.174336
Si    20.386524    13.892322    15.395932
Na    12.825013     2.532451     7.439513
O     32.418137    20.962170    23.818921
O     19.163927     8.273987     0.312294
O      0.502398     3.687559    26.823005
O      7.136755    19.020304     6.563308
O     25.233214     3.742280    17.662437
Na    21.841569    24.400483    29.705152
Si    20.224027    24.839146    23.637233
O     34.668002    29.454765     1.736787
Si    12.950679     6.422541    16.392865
O      2.503755    22.656966    28.020873
Na    16.532835    29.244179     6.507239
Na     3.979132    33.180259     2.254525
O     15.012250     1.011752    22.738399
Si    12.551862     3.327029     4.087571
Na    15.565122    35.315917    14.109944
Si    14.205798    32.817863    11.213896
Si    32.009636    20.301482    35.216898
Ca     4.154164     3.138160    19.006385
P     27.790039     3.328277    23.256674
O     19.674841    16.977446    33.523205
Ca    24.992971     1.864342    17.724530
O      4.928883    32.220840    10.711197
O     25.057338    20.655161    19.057919
Na    28.498861     4.552175     9.409717
O      5.238018    14.409883     2.059994
O     12.224393     5.536011     3.505742
O     13.964830     3.811138    19.490143
Na    33.863229    13.732489    32.370570
O     29.574225    32.373083    15.131695
Si    34.019941     6.507233     7.138623
O      2.958062    28.079981    33.724516
O     27.807226    28.763961    18.872364
Na    27.447915     2.865019    26.832698
O      8.508052    30.283199     1.327889
Na    30.965946    22.712504    24.292513
O     30.961595    30.710783    18.401159
O     31.935517    30.773541     1.976128
Ca    17.836379    19.973941    24.435755
O      2.592458    26.003396     1.540219
O     11.354237    26.110506    27.483450
O     30.556058    29.541329    12.668086
O     12.597539    24.712270     5.588739
Si    30.308339     4.680112    21.221156
O      6.554932    34.814523     5.342866
Ca    33.799305    22.481566     1.889649
O     17.338959     3.017951    26.018662
Ca     1.397484    17.429507    20.292472
Ca     5.634046    12.772716    25.732207
O     33.219275     2.180983    20.616597
Ca    13.900850     0.510355     0.544380
O     11.795002    24.430240    34.654358
O      9.835099     4.922296     9.672625
Si     4.326651    29.281650     5.315559
O     28.061148     0.666082     0.109119
O     28.971079    24.262167    27.080769
O     33.789635    26.933584    13.979335
O     14.688155    14.279059    23.909580
Na    20.290307    21.981892    34.488209
O     11.298703     5.917605     4.924798
O      7.910857    16.802212     9.695578
O     17.589328     7.782289     0.940180
O     27.440372    14.916695    10.768293
Ca    24.261156    23.682290    11.370099
Si    16.718987    13.427113     7.191735
Na    15.116824    31.841762    14.601146
O      4.635959     8.472694     8.479715
O     20.080835     8.028042    32.935123
O     13.031409     4.200406    31.370286
Si    34.141594     4.291102    30.604773
Si     3.028380     1.131857    16.918724
O     16.481763    32.265158    19.518542
Si     3.223270    32.110781    30.306847
O     13.954466     1.790050    31.726468
Ca     7.450806    22.094751    19.555663
Si     0.314036     8.734815     4.674980
O     17.134828     4.709305     7.828833
O     18.700745     7.274416    33.665421
O     27.993884     3.643858     0.311817
O     20.686859    11.757797    21.362682
O     21.054321    14.385214    26.140475
Si     3.692181     5.505561    18.838724
O     17.386169    25.125598     6.951951
O     13.594269     7.839762    27.703451
O     30.739579    10.352092     5.756377
O     29.244084    34.268518    24.871856
Ca     9.936472    30.905110    19.924763
O     28.130807     3.230475     7.389817
Na    28.951248    24.757564    12.767890
Si     3.489805    30.486234     0.566881
O      1.326925     9.694058     5.219663
O      4.865007     6.863892    28.761046
O      6.197856    15.323584    23.239389
O     11.195109    34.138387    32.202656
O     14.053759    29.257800    13.324232
O     23.960493    34.328565     9.777132
O     22.739952    24.201669    34.576178
Na     2.008202     9.260599    13.362683
O      3.069616    32.342581    30.286273
O     30.120931     5.763981     8.611467
O     17.392674    34.893926    23.729231
O     32.666574    24.034524     3.925670
Si    26.767264    17.894568    26.612989
Si    19.699708    34.721098     0.870599
O     27.917618     3.444269    23.133318
Si    25.835454    27.330777    12.529467
O      5.606170    30.746023    28.153355
Na    16.480240    29.696504     1.598325
Na    28.969227    23.937962    15.698747
Na     1.046452    31.478888    29.416739
O      0.275232    28.430057    23.506683
O      3.054573     7.178124    18.425655
Ca    30.188097    31.365597    20.324650
Si    11.842570    31.888288    18.785449
O     20.224860     3.804982    23.144193
Na     2.637850    34.683502    26.001013
Si    14.212361    19.258376    25.908460
Si    14.005822    14.203429     4.608969
O     12.615223    29.631712    29.962497
Ca    22.000432     5.668032    15.000671
O     25.524112     2.027716    34.812518
Si    27.633629    11.234906    24.167052
Na     1.846327     9.133867    17.579158
O     29.560547    20.677100    19.082028
O     34.381599     5.665100    10.618724
O     30.973384    26.829600    12.038723
Si    34.958338    19.286226    29.861222
O      1.708493    27.368721     7.843651
Si    32.621162    28.751026    16.637192
O     17.166061     6.547390    17.676419
Si    29.748833    34.205026    29.860465
Si    35.053657    14.610626    18.444175
Na    30.906213    28.760872    34.884412
O     27.810042     4.051086    18.521587
O      5.501181     6.381970    19.800659
O     35.448965    32.678624    17.422038
Ca     5.618373    25.387818     3.667564
O      0.999503     2.854199    18.611063
O     21.421287    26.723070     4.279152
O     19.480004    34.526672    29.611404
O     22.413540    12.798125    23.749123
O     32.286038    16.645479    19.310575
O     14.314043    34.459878    26.551441
Si    11.460833    31.833764    20.863078
O      3.470163    31.076506    11.576731
O     30.757224    10.548563    29.832062
O     13.645941    31.145214    28.612022
Ca    20.150714    32.005941    35.367918
Si    16.895401    26.943074    32.082551
O     31.443119    26.264182    34.444634
Na    16.907551    21.947803     8.379167
O     34.704326    19.742558    24.141244
O     26.975828     9.464410    29.818208
Na    13.209962     5.963652    30.879686
O     18.616489    17.345149    12.985873
O     19.085230    25.657171    20.180409
O      2.362255    16.522243    21.858021
O     10.091863     3.364989    33.788283
O     31.147084    12.347421     0.436779
Na    15.046023     5.400418    26.877936
Na    27.125947    29.305533    15.028729
O     32.166494     3.342317    26.779052
O      7.255141     3.902711    35.329802
O     25.100148    25.280300    24.488020
O     10.361493    14.499348    25.719770
O      0.657394    21.975013    28.058168
Na    23.991065    34.589214    18.912167
O     28.053668    26.613569    30.453021
O     34.807772    16.506727    29.508610
Ca    34.827649    31.306678     4.409129
Si     8.321112     9.174225    20.520210
Ca     4.548620    17.438810    30.868221
O     11.243607     2.241138    19.278174
O     27.985317    25.154376    16.518740
Si     1.206763     0.982123     0.216897
Si     2.005217    14.070219    11.705480
O     32.430054    29.895824    28.163954
O     31.055242    11.108567    24.592952
O     33.202102     9.484734     1.912702
Na    24.098925     3.526256    15.528563
Na     5.598379    35.177244     7.801608
O     14.289613    13.704581    27.117817
O     17.025292     9.657899     9.869750
Si    21.421061    14.600833    13.226800
O     20.804943    26.774255     5.991918
O     11.660881    13.635634    23.990292
O     13.257992     1.474876     5.679255
O     13.023998    22.572736     8.093882
O     26.137501     6.930212    10.781972
O     25.829788     6.065200    28.820826
Ca    31.581211    29.008710     6.061574
Ca     8.800564     5.344723    20.356423
O     33.914580     0.993935    27.596000
Si    30.363595    32.362981     6.994670
O     27.008473     0.474572     5.289641
O     18.118370     6.409662    28.763728
Si    25.822651    20.064062    27.182348
Na    11.323164     3.815142    31.317474
Si     6.230785     2.752955     6.322561
Ca     3.264708    24.113633     9.457137
O     20.464480    23.889922     1.199550
Ca     2.664651    19.751544    20.765458
O     16.418121    27.679059     2.673341
O     16.945346     4.359425     3.233796
Ca     4.968013     8.522451     0.836678
Si     3.321281    26.280508     3.483760
Ca    19.943950    11.017807    18.325964
O     32.825076    11.234017    19.371173
Na     3.440659    18.886636     5.507682
O     33.821182    26.908782    33.238430
Na     2.950653     6.657652     9.713042
Na    26.361392    34.167656    20.163844
Ca    13.173896    21.923670    25.675251
O     15.645391    28.651448    24.646386
Na    23.844858    26.538678    29.368214
Na    21.345549    23.240339    24.514718
Si    11.811234    17.839450    18.572946
Na    10.792131    20.365460    10.826106
O     21.636865    11.910134    22.588175
O     25.063491    33.227708     9.374021
Na    25.751684    30.582623    19.680100
O     22.603963    22.969365    22.812962
O     22.580491    11.778803    27.198111
O     26.441559    32.609016    11.376127
Si    12.061128    30.419403    17.251690
Si    33.121214    33.705286    14.212188
O     14.013197    25.713173     8.109978
Na    13.001383    17.300988     0.322900
Ca     8.980232    29.362242    25.564994
O     26.535392    27.775627    16.884832
O     25.270904     5.905513    24.855926
O     12.802070     1.101896    25.676363
O     20.230540    18.581569     3.848490
O     23.688373    12.519976     6.968779
O     26.086979    35.404361    21.745581
Si    14.429233    15.151232    22.389428
Na     5.981805    10.206262    15.476932
Si     9.350841    34.367027    27.532585
O      9.333463    10.674689     8.970541
Si    23.899025    34.282945     9.695629
O     12.909127     8.635655     2.608236
O      5.610577    34.072570    12.954706
O     12.754955     3.968544     4.291456
O     14.373168    26.752428    20.424048
Na    16.949223    22.092946    30.303438
Ca    23.331080    34.401991    24.524712
O     11.001369    22.511618    13.752453
O      8.092020    10.378010    18.760205
O     11.055262    11.711195    16.422944
Si    30.862226    29.382320    12.796400
Si    20.559268    11.969277    21.401790
O     15.798227     3.872463    32.634568
O     20.721400    27.813501    27.551090
O     12.518079    26.198580    30.592373
Si    25.476719    33.485645    27.947961
Na    31.863912    13.474223     6.795023
O     16.795574    18.083104    26.791892
O      1.708635     6.681550    32.037223
O      5.051027    20.862166     9.085681
O     25.325103    29.789126     0.817604
O     29.301321    33.161974    12.892285
Ca    27.532624    17.656018     6.072517
Na    26.369272     2.829285     8.866522
Na    19.035125    31.145224    11.306272
O      0.188457    27.012034     9.456397
Na    25.178949    17.612119     1.025943
O     20.551223    35.160324    14.653938
O     15.287952     5.858638    11.271406
Na    35.450833    33.548328    11.353494
Na    31.796233     1.951845     8.620214
Si    17.253414    11.310553    18.724901
Si    21.385450    16.939953    32.929333
Si     0.937591    33.266765    29.678594
O      2.684809    13.453764    20.638342
Na    10.305074     2.259442    17.618716
Na    33.115750     7.380993     0.800384
O     30.498361    12.462727    18.745474
O      3.007109    22.490652    34.853990
O     11.792580    22.441627    18.288335
Na    29.515938    31.727472    29.545926
O     12.700000    17.966878    26.458155
Ca     6.942701    13.713126     0.807038
O     29.088083    29.089555    23.681738
Na    21.259689    28.605803     4.763906
Si     4.459208    27.156027     4.090187
O     13.637523    31.277142    10.651676
Si    25.625526    25.308893    26.295301
Ca    34.325378    25.069918     4.593335
Na     2.721335    16.674152    11.015594
O      0.693588    19.846784    30.613649
O      0.943467     4.172675    29.240712
P      3.035398    27.934477    33.768668
O     21.152762     9.675137    18.749916
Ca    16.978746     6.608950     3.393056
Na     8.825294     9.860752     0.014173
O     30.375777     1.284267     0.852120
Si     2.781066     4.357483    28.948121
Na    23.453162    15.683411    12.089710
O     10.286889     5.220024    33.623115
O     17.096246    12.856281    11.762759
Na    25.244983     2.962636     2.790951
O     26.994716     1.484238     2.881111
O     15.644624    16.351100    22.259485
Si    16.852021     9.238735     1.692380
O     34.961342     9.708218    16.111217
O     24.247063     0.832601     0.882558
Ca    24.942618    22.659941    35.172529
Na    14.703755    31.379230     1.368805
Na    14.783665    31.667356     7.304100
Si    19.743057    27.450856    23.423202
O      6.363155    32.493881    17.867779
Ca    10.609359    13.702733     3.541660
O      4.782725     8.379791     2.631552
Si    30.361815    22.286091    18.981465
O      6.882531    29.751097    26.741680
Si    14.038341    17.039351    30.871540
O     33.449922    11.432748    22.083110
O     33.864964    18.623405    26.497329
Si     0.588254    12.131335     7.273748
Na     2.996912    30.701950     9.002243
O     33.983867    11.173995    17.924476
Si    18.845937    29.251616     3.265377
O     25.254124     3.731691    28.616511
Si    19.505156    19.704403    31.704404
O     30.300237     6.228890    31.347858
O     18.149682     0.425522    26.014469
O     29.448630    20.038383     8.943792
O     23.881894    33.498439    13.613139
O     13.292729    12.042727    21.247189
Ca    25.742871     7.774389    15.662858
P     12.057534     7.883784     1.205558
O     24.924265    14.437982    11.648035
Si    27.192021    22.428555    19.531887
O      8.456749     9.674652    27.030704
O     13.165527     6.260889    18.265779
O     17.053332    11.589025    29.305475
Na    17.727384    25.408604    23.921158
O     10.278518     1.123863    14.967981
O     15.051522    18.875607    27.318937
O     15.556771    24.014093     8.374009
Si    34.035499     4.155429     1.757865
O     17.895343    10.697188    17.512229
O     18.210245    23.647985     8.093069
O      0.760949     4.088884    17.208478
Ca    12.334470     0.540597    14.631988
O     11.060832    21.247775     3.954637
O      9.899359    11.713057     9.317405
O     16.429826    13.703690     7.049422
Na    26.076926    28.328035    23.987137
O     14.480175    31.910721    18.060436
Na    22.540167    14.897230     8.612910
Na    33.540639    35.495129    24.832701
P      0.541719     8.892489    16.142188
Ca    16.673076    16.716805    13.177115
Si    29.148821    11.457717    24.108446
P     10.016194     1.510485    22.291383
Si     9.056487    22.506563    11.237001
O     34.634076    14.301471    16.738734
Na     8.117516    34.818403    15.990635
O      2.862354    26.454798    33.752054
Na     2.618846    23.726105     1.132842
Si    18.197806     6.656076    28.558321
Ca    18.808704    18.571413    26.435600
O     12.507982    25.688825    20.414317
Si    20.950623    17.207708     2.800739
O     15.381677    16.923976    32.336614
Si    30.275952     0.820072    18.011407
O     17.154363     8.279990    33.793340
O     29.572969    22.704591    27.198942
O     30.097610     6.747108     2.074668
Na    13.026530    30.121819    19.754226
O     13.537233    34.484578    21.325801
O      7.485627    32.451114     2.653578
O     24.766489    10.852564    10.168409
O     33.704160    24.885021    20.661229
O     17.369073    29.578370     8.680127
O     31.413576     6.578246    11.222976
Na    33.055285    32.378392    31.040246
O     26.989110    28.507536     4.445561
Na    20.076523    32.714511    15.659766
Na    28.947758    28.839983    25.644328
O     32.914283    21.857823    20.773692
O     26.215333    25.725482    12.266270
O      9.208248    20.696807    11.918620
O      6.936564    14.616518    17.705092
Na     7.528821    17.422644    13.776919
Ca    22.503312     2.286178     8.039610
O     28.060264    22.622447     5.267161
Si    35.193599    31.044723    31.856830
O     14.517647     5.519127    16.275868
Ca     4.022406     3.851691     2.617749
O     27.054869    29.127968    10.471710
Si    14.407211     0.957267    17.906450
O     20.854747    31.687898    22.424960
O      5.681225    21.417385    35.468714
O     30.471457    16.174620     9.496492
O     24.534001     4.858426    18.633470
Si    22.802935    24.215077    34.633675
O     34.505756     6.812306    18.846708
O      9.025848    25.496888    34.468935
Ca     7.556899     2.922920    33.604389
O     10.018641     4.544192    27.768590
O      0.978309     9.059614    26.314392
Na     6.648699    23.633476     3.958849
Ca    14.212597     4.581460    11.794430
O     30.450353    32.464441     4.235182
O     17.959243    12.764344    14.515415
Ca     1.685260    16.079705    32.238922
O      4.246890     1.029051    28.361676
Na    29.891234     7.182943    33.326447
Si    10.102365     3.340433    33.729003
O     29.093727    25.364301    25.520748
Ca    17.948798     2.562396     3.358449
Ca    31.846046    24.636124    15.040201
Si     0.140143    30.343424    21.537588
O      1.020535    21.819606     8.908500
O      5.276631    17.324650    10.764446
O     35.156113    22.040710    32.630370
O      2.861579     4.638387    24.018995
Ca    16.698466    20.300902     0.517756
Na    25.296950    28.252585    34.103496
Si    10.443964     1.267456    14.917891
O     18.693610     3.702173    24.949692
O     29.751486    21.055425    12.009270
O     16.828224    33.888499     2.227583
O     33.330702    21.677414    30.943975
O     19.155352    19.158120    23.276663
Ca    14.540072     1.984094    20.131529
O      7.113391    11.281125    29.246733
O      6.386532     2.515203     6.236640
Na    10.737679    17.182092    16.731996
Ca    14.172138    24.477955    11.253354
O     20.983721    18.643119     8.642106
Na     7.289878    25.652820    30.853600
O     18.687357    14.230468     9.203734
O     30.059088     9.038977     1.439376
O     27.993178    27.139545    24.338776
Ca    23.000101    17.259686    11.223104
O     35.449313     4.167679    33.888768
Si     7.212749     5.018515    17.183293
O      4.404799     2.970390    35.446049
Si     9.503321    26.429023    24.446545
O     17.274326    18.483717    12.290887
O     10.908556    20.796918    14.718734
O      0.977948    28.742188    19.797178
O      3.732534     9.959652    29.622370
Si    27.466522    23.320192    12.163017
O     29.350013     9.375988    22.219597
Ca     2.273515    19.263534     2.821035
Si    20.643650     6.451044    32.465959
Na    13.899532    13.617485     6.863291
O     26.336567    11.815229    25.296760
Ca    20.103061    15.928134    35.018425
O     23.389746    29.378143     7.444537
O     17.768633    22.932717    19.035733
O     31.618827    12.530750     2.139121
O     29.960825     5.215035    14.397745
O     35.121281    26.857399    29.468132
P      9.616195    14.922220     1.928408
Si     6.954082    10.633162    27.701218
Ca    11.216940    33.250853    15.292168
O      6.166288    15.138545    20.478930
O     22.487825    33.445798    22.836683
Si    19.654330    10.602425     5.937742
O     29.819765    34.264182    29.871394
Na    32.383847    22.523661    11.107247
Ca    25.194693    32.904979    15.489393
O     19.105749     8.832570    27.709458
O      7.426967    17.765722    23.376374
O     28.126025    10.248892    12.991718
Si    32.832732     4.569258     4.669507
O     13.721465    18.043409     6.407303
O     21.779426    26.619710    29.345619
O     11.301549    31.976044    20.678914
Na    19.119952    15.277056    32.880897
O      1.234024    20.737253     1.742622
O     13.681794    18.787833     9.086307
Si    18.740053     7.721029     4.754149
Si     2.647579     6.655481     6.307762
Si    25.008000    16.158724    10.134272
O     12.704488     3.700616    25.888669
Na     1.544983    15.587303     8.601740
Si     5.617401    33.403483     5.880953
Na    23.150536    17.802951    17.180865
Si    20.043050    15.620371    22.389077
Na    13.209235     9.591692     7.914511
O     18.031343     9.364312    17.480364
O     14.031780    10.623682    22.086752
O     28.187955     4.239096    16.465052
Na     9.682524    12.453124    26.583314
Si     1.931157    34.546239    11.096269
O     25.303632     9.960508    32.915396
O     10.011778    25.127715    25.585775
Si    18.840821    20.790584    31.279400
Si    16.734398    18.078729    26.628732
O     29.081085    26.057591    27.828194
Ca     6.988232    18.046860    19.449586
O     35.057223     6.606610     8.568339
O      5.037258    26.448418     7.420004
Ca     9.587376    22.029004    27.656635
O     24.628736    34.456366    13.361337
Na     4.150792    26.126402    10.770211
O     33.318376    24.104632     9.027099
Na     4.697072    35.461110    34.713388
P      6.948287    32.492425    19.539884
Na    21.306314     2.851504    30.296164
O      9.783334    31.714230     7.481660
Ca     3.902284    21.507025    20.075046
Si     6.510739     9.787140    34.259875
Si    16.397271    25.329271     5.314604
O     23.739701     8.407154     2.945538
Na     2.229737     0.530977     1.861944
O      9.493807    33.369666     6.548587
Ca     6.619149    22.506795    25.197842
O     19.191397    29.905267    27.191506
O     24.226497    35.127473    14.779848
O      0.317818     2.516998    24.250262
Si    10.042397    10.484057    15.695471
Na    22.415738    32.568914    20.182637
Si     0.585415     9.673125    24.856173
Si    25.014898     0.849095     1.180470
Si    33.933554    34.712405     1.723654
Ca    18.937528     1.292498    18.358804
Si    22.699320    23.347471    27.174336
O     30.086749     0.895376    15.940891
O      6.127415    32.126160    27.003907
Si    20.768772     3.549338    22.026555
O     12.823053     2.090798     9.866923
O     13.227242    34.332413    11.014177
O     20.038502    32.240812    27.259222
O     14.566327    16.252918    35.430844
O     11.054084    30.711309    22.266034
Si     9.591438    23.444628    25.662430
Ca     6.957010    30.330277     3.038044
Si    13.983950    10.647699    22.063215
O     27.772232    22.692243    29.810339
O     31.599692    21.710521    28.930924
Si    21.468814     8.161973    14.832171
Ca    26.084801    28.636741     7.633960
O      9.283063    20.635281    21.203039
Si    32.796046    29.115268     1.525949
O      5.368265     3.648438    23.692190
Ca     7.820320    12.013252    15.784319
Si    29.518018    30.201394    13.274479
O      1.699935     4.031086    31.599714
O     13.963462    34.644166    32.125465
Si    28.943513    26.395700    16.446118
Na    32.351956    13.835069    35.145639
Na    16.615226    32.229724    34.420127
Ca    19.479194    32.713208    13.205088
O      9.567948    30.289713    21.494359
O      3.878215    14.430107    32.764504
O     18.129967     3.868482    17.591853
Na     8.728274     9.125540    22.448942
O     12.163240    30.579724    17.417274
Ca     8.655523    32.603477     1.194437
O     34.539252    26.248779    11.733883
Si     5.840542    24.229977    12.008135
O      5.548121     4.269182    24.627505
Na    25.883596     8.136453    21.911380
Na     3.121528    16.729414    33.305274
O      6.456092    26.688386     7.421817
O     33.754910    26.162473     2.612892
Ca    21.127599    17.053508    21.750701
O      5.642869     6.556735     4.137236
Ca    29.746719     3.690004    27.976501
O     29.287514    31.934279    27.382005
O      4.554111    27.662871    32.256746
Si    15.117585    28.868974    18.115866
Si    18.653253     3.751311    24.983422
O      1.674355    29.966818    10.935525
O     14.086585    17.449334    25.366795
O      2.645189    33.880423    14.146085
Na    14.671724    19.325942    10.508885
O      6.549142    11.026431    21.545709
O     24.356397    15.222639    20.753343
O     32.211817    31.986917    14.613557
Na     8.637290    33.561228    18.142901
O      5.936890    14.675875    25.637600
Na    13.564988    30.310374    15.025554
Si    22.654973    28.614465    15.646810
O      8.382837    14.440604     2.134493
O      0.960274     9.810310    23.125430
O      7.217655    20.087161    19.200428
Na    32.491629    25.965309    12.271957
Ca    29.270631     0.391092     8.516943
O     11.267112    12.597531    24.145063
Si    29.622661    18.864865    35.303333
O     20.793334     7.478034    13.359596
O     29.840469    15.938901     4.481577
O      8.698757    23.753952    28.955566
O     23.925111    34.432745    11.622486
O     22.812644    23.388136    27.056531
O     34.875924    10.794828    20.041471
Ca    25.591664    22.165989     6.575982
Si    15.941985    27.836534     1.298708
Ca    28.302228     9.082327    14.494491
O     27.415514    23.316036    12.156957
Si    29.965830    17.815506     3.958397
O      4.103699    16.252450    20.313681
Si     4.235520     1.357855    28.154736
O     21.046030    17.105560    10.793630
Na    28.501007     7.790770    25.746090
O     27.282390     2.979486    21.655028
Si    13.258856     1.071661     5.819066
Si     8.372653    26.840768    19.523306
O     13.060669    16.411295     7.989646
P     15.606740    15.902430     2.220129
Ca    13.307239    12.701176    15.330304
Na    14.465458    26.316983    11.817040
Na    33.802030     1.304126    35.246594
Ca    20.408709    12.673835     6.416148
Si     8.699345    30.135303     1.365870
Si    24.986318    10.807407    32.103460
O     16.695869     6.274891    27.050379
Na    29.722590    34.999359    11.439862
Na    13.425762    24.206440    22.715476
Na    30.889019    15.233233    27.603424
Si    18.090923    32.276536    14.648529
Na    28.861360    18.578372    23.091815
Na    23.325599     0.641697    10.666186
Si    13.077347    20.540404     9.493895
Si     3.688236     9.822392    29.985878
O      1.482387    34.289632    12.391075
Na    15.400028    33.663091    31.516222
Na    33.522266    16.115143     9.698432
Si    32.167098    35.221063    34.504275
O      9.239319     3.239952    15.345692
O     30.155406    31.903165    35.428443
O     14.427735    26.261909     9.186646
O     13.523238    25.572022    19.291828
Ca    21.372314    33.426635    26.728081
Si    14.271514    20.613692     4.708021
O      7.365239    31.328616    13.841973
O      5.530875    20.231754    12.185126
O     26.113143    20.504667     7.504472
O     30.687445    25.520655    28.298637
Na    25.315804    19.606704    20.475783
Na    34.142599    31.009432    16.568836
Na    17.739371    11.063625    30.958854
O      9.073947    34.113814    12.947836
O     22.902408    28.198304     5.254049
O      8.424163    33.041842    15.051752
Na     3.178548     3.804800     6.587189
O     32.762980    25.655113    16.410149
O     20.561427    28.839372    29.151967
Si    35.122635    13.762817    23.691281
O     14.703058    18.424533    30.347151
Si    10.584392    27.287129    31.138065
Na    30.125088    12.362363    15.796193
O     30.551468    23.378215    14.653198
O      1.060229    21.178804    15.036216
Si    28.445886    13.582900    10.100086
O     27.544001    17.120206    21.212775
O     32.419947    22.248862    25.051061
O      5.830362    16.352461    15.525852
Si    21.442036    17.442815     9.102244
O     14.198621     8.552008    26.755180
Na     3.449539    33.152021     5.504916
O     18.905535    15.309352     0.925745
O      5.550398    26.316571     5.229380
Na    14.218332    25.220258     3.017968
O     29.996632    22.553902    18.575755
O     19.414564    11.435359     1.935500
O     28.314004    12.918651    10.367038
Ca    11.551925    20.491851     6.030481
Ca    15.692583    18.326740    19.384043
Na    11.575541     2.457959     4.975591
O     19.102580     3.849699    31.379504
Ca    29.298600     7.538107    17.561684
O      4.945187    34.626879    24.043722
O     30.428626    25.556261    29.701605
Ca    15.067686    17.667885     8.151991
O     24.976776    16.605848     2.640816
O     27.271494     1.213149    11.809403
O      5.935620     4.575918    29.473670
O     10.924249     5.334240    23.762144
O     14.001362    28.521075    14.851706
O     30.861497     2.488334    16.489432
O     20.278196    18.640946    25.081578
O     17.897182     4.380566     9.424844
O     28.066724    31.539592    34.378831
Si    13.298444    29.336167    28.401940
O     17.796316    33.028591     3.596755
O     17.149884     7.662543     7.699271
O      2.088850    13.552745    11.590499
Ca     7.453690    34.345747    13.871741
Si    18.366825    17.878820    11.242646
O      3.506435    22.470344    10.324238
Si     6.384206     7.506751     2.818994
Si    19.079416     6.519278    35.242750
O     19.815849    19.469044    30.705190
O     26.229429     0.985417    26.112011
Na     9.667271     6.964145     8.692711
O     20.088002    15.662777    22.428927
O      2.234386    35.142805    17.693316
Si     5.214336    21.349275     4.082868
Si     6.163335    12.753988     3.396299
O     13.113831    34.462398    24.381287
O     31.856102    31.140110    21.178442
O     31.326878    32.566194    19.226025
Si    11.434119    33.321358    10.326615
O      0.745444    22.338324     7.192141
O     11.540457     5.190420    15.913289
Ca    24.687098     1.111094    27.274005
O     16.957337    24.925758     8.967120
O      3.648524     3.693602    30.281099
O     29.662292    27.021481    21.823861
Na     3.597086    34.770004    19.316793
O      0.263391    26.927966    22.415323
Ca    33.797851    12.398110     6.818280
O      4.861247     5.020708     0.728120
O      5.889770     1.130972    13.987438
Ca     3.609354    34.424923    28.375375
Ca    28.844474    29.660961     4.889698
Ca    11.774651    11.645656    10.911396
Si    34.468030    26.202761    19.021566
Si    27.430674     6.703042    32.366656
O     24.445005    15.189795    30.834630
O     16.654894    22.459657    33.426634
Ca    11.776796    20.565931    19.350081
Si    17.446555    34.147684    13.489803
O     26.798852     9.189718    11.118207
P     33.190518     9.410291     1.874952
P     15.960681    15.369397     5.794316
Ca     6.173241    14.373975    12.257501
O      9.365029    30.882160     1.873635
O      1.786387    34.272402    29.016664
O     25.991266     1.984423    20.670435
O     32.192426    12.575710    17.942690
O     22.199511    30.376999    15.560494
Na    30.527711    28.653617    32.524692
O     14.822052     7.836513    28.866584
Na    15.158509    15.837177    33.370203
O     23.219238    23.069825    24.164553
O      2.731743    14.777187    33.207837
Si    34.852834    21.647343    15.512105
O     11.093996     3.233715     8.076274
O      4.766239     2.462205    33.596455
O     24.358997     1.913664    15.314117
O      7.206785    14.919126     6.290007
Si     6.629140    32.161204     1.178711
O     29.563681    16.649316     6.866175
O     12.713872    17.599525    31.781291
O     23.224640    30.813614     6.235662
Na    12.977374    11.807207    19.733473
Si    27.560843    17.163845    21.249122
O     30.707980    23.648688     9.573239
O      5.399317    19.751732    35.145660
Si    17.044036    34.238808    16.735724
O      7.520769    10.378081     0.718990
O     25.567404    30.310143     8.629963
Si    20.465362     8.342395    22.959010
O     15.201639    16.570038    29.843451
O     16.220782     8.466483    10.071461
O     30.561956     3.067871    21.963675
O     30.814681    34.851846    30.579218
Na     4.755653    15.871651     3.301622
O      4.555513    27.654318    34.597483
Ca     8.932310    29.396745    17.023116
Na    18.771682    11.556380    11.070002
O     20.155823    30.235321     3.909897
O     15.915778    23.637294    31.262565
O      1.169184    22.426899     5.009376
O     35.071314    13.737165    23.561895
Si    24.515930    22.817083    32.703484
O      3.992705    29.201872     9.438447
Si    18.443306    22.337689    33.158085
Na    24.132485    32.499889    32.180484
Si    15.265024     8.008441    21.113158
Si     4.266782    33.688339    14.244113
Na    12.780767     0.658319    11.083243
O      3.431245     9.001237    14.890372
Na    32.237617     4.758020    28.082440
P      6.266576     8.139572    16.932716
O      3.440690    30.319023     6.262867
O     27.648367    15.840085    31.229057
Na    15.565332     3.301071     2.465864
Si    18.750147    15.468144     0.905027
O     22.689282    13.774487    28.039700
Ca     0.824891     0.063364    24.249917
O      7.109393    12.506484     2.567362
Si    34.133851    14.633006    29.040470
O      4.179488    12.185249    26.500690
Na     3.643074     4.789791    35.157457
Si    13.774347    35.255238    25.004345
O     23.346345    28.707034     9.311672
O     21.563094    15.605662    34.229252
Na    24.666405     6.898725     8.348943
Na    24.085215     2.615049     4.961313
Na    22.419096    17.087379     4.607233
P      5.270860     7.673628    23.235984
Ca    15.485701    31.272213    21.121288
Si    29.024617    25.342346    25.588283
O      5.936406    27.279516    19.179178
O     23.252918    26.382119    32.872249
Si    14.607427     3.331404    31.619192
O     25.277874    26.224298     4.329157
O      0.140164    26.140208    13.962340
Si    31.267202    18.866764    21.732911
Na    18.821070    15.369377    25.625479
O     13.355073     5.722898    34.985819
Na    19.030266    33.270970    11.681062
O     34.252922    21.542625    16.835811
Si    31.061969    13.544620     3.497491
Ca     7.668134     1.165825    26.638998
Si    30.533253    12.370506    18.713229
O     14.016595    11.650531    33.712564
O      5.989838     1.420813    32.976741
O      2.475795     5.059137     5.404252
O     22.073055     7.297837    11.187881
O     25.526966    28.889530    25.843729
O      4.270619     4.991911    23.070397
Si    26.951348    28.500404     4.426580
Si    19.807066     4.777829     4.212716
P     13.959836    29.111249    13.365290
Si    27.933983     3.655245     0.244103
Na    28.977915    20.181902    14.814224
O      9.535885    22.082717     9.571117
O     26.787860    28.396616     5.754957
O     23.535249    11.152612    23.701647
O     16.496439     8.528023     3.305095
O     29.429892    11.234856     3.531638
O     35.095864     4.050643    22.074138
Si    24.018054    33.578671    13.620319
Na     7.324845    13.842118     3.159507
P     12.157762     2.193590    16.913733
O     12.589752    13.215000    24.954397
O     21.502112    24.560957    26.981372
Na    19.638225     7.801156    25.647009
O     21.540029     0.436341    17.492657
O     27.128623     2.247243    24.068635
Ca     7.669140     6.045621    15.106480
O      2.335429     1.797989    17.074034
O      3.754965    32.253387    15.476625
O     29.503651    11.781235    30.501799
O      5.241625    25.973577    17.021891
Na    32.235844     8.253468    19.368221
O     19.127093    10.996108    14.830128
O     25.415903    27.971467    22.076255
Ca     4.481244    32.424328    17.916912
O     12.107227    23.162033    23.748482
O      5.779448    10.538862    26.288756
Si    24.735816    27.487842    16.815095
Ca     4.451376    19.774055     7.594313
O     28.781121    11.804898     5.599622
Na    34.018632    21.092924    12.640828
O     18.569293    20.419712     0.205699
Si    10.556930    12.604574    14.728799
O     26.213141    26.899911    28.287288
O     14.270976    12.716240     5.481891
Na    12.212517     7.894902    29.111709
O      5.063157    29.912824    35.385081
O     26.244219    17.211524     9.740473
P     30.465555    16.213852     9.440868
O      8.677211    21.326065     8.461230
Ca    18.638931     6.089968     7.614202
O     13.057456     7.593217     7.473665
Na     7.130178    30.038322    12.520098
O     14.468167    26.503938     1.072839
O      3.138957    11.430118    24.821378
Si    33.414922    31.495557    27.635296
O     18.652850    17.723895    11.249725
Na     9.660339    16.399971     5.711983
O      3.635356     2.751010    27.096435
Na    24.983386    18.545352    24.598160
O     20.549010     0.719057     0.677594
Ca     5.536072    30.776334    11.794536
O      4.326813     7.282364     5.859664
O     12.035982    18.508814    24.677268
O     34.595617    34.026820    17.661056
Na    20.186550     3.941847    11.017821
O      4.731721     6.419309    24.114446
O     34.426429     9.333098    24.468584
O     33.598797    17.841847    18.175216
Na    22.768104    27.006078    34.617047
O     12.067647     8.348526    19.230606
Na    26.794258    18.434237     0.868821
Si    29.398394    28.494349     8.685159
O      3.549924     8.899482    21.917709
P     11.445358    27.404051    27.269286
O     27.452169     6.994940    15.205878
Si    28.427208    11.701441    31.104866
O     19.336872    10.203140    35.094888
O     10.105877    10.679817     5.182323
Na    19.951389    10.873474    16.295432
Si    22.559069    26.966629    27.759651
Si    24.693072    10.407246    29.329071
O      2.025451    20.275255     8.004637
O      7.964905    22.051912    31.997582
O      5.756836    22.315636     1.257508
Na    28.696363    13.831463    30.461759
Na     7.313392     3.532362    20.233279
O      4.763951    11.736339    15.341867
O     20.820756    12.995364    12.789619
O      7.197847    12.160490    11.854347
O     14.960960     9.135057     1.757547
O     12.032352    33.956878     9.880340
Na    28.218273     6.124597    13.331837
O      2.007308     2.726744    25.328796
O     26.744407    29.120044    20.359360
O     16.115385    25.164098    20.504053
Ca    15.957016    26.420260    14.593017
Si     8.774353     2.242704    16.253212
O     30.307570    25.619511    31.408337
Si    24.358808    20.476061     6.841829
O     15.549016     6.282106    18.699677
P     33.946071     1.013157    27.563230
O     11.877811    35.336469     0.130555
O     24.540385    27.313428    17.142293
O     26.753319    17.638221    25.555251
Si     1.983995    26.630094     9.598585
O     34.258939    20.242296    14.459384
Na    28.596909    27.454520    20.130633
O     23.194425     3.728122    24.987445
O      7.221462    14.003724    31.196632
Ca     5.892334     1.380513    22.157993
O     17.318177    22.245549    22.676841
Si    22.618446    12.182241    14.917077
Ca    11.864111    27.415749    17.409007
O      5.894184    35.057804    17.720386
Ca    21.748839    14.055218    22.677803
Ca    32.278500    16.095441     6.099924
Ca     7.143068    16.579191     2.567530
O     19.067447    15.210712     3.963008
O     34.643203    31.201768    30.257388
Ca    33.698936    29.702601     9.553843
Na    14.335746    34.786797    23.122909
O     16.339418    25.359777     5.316996
O     32.351292    30.320673    18.289090
O     21.181625     5.654860    31.144049
Ca    29.160737    22.582171    13.684897
O     24.715511     0.040712    17.072460
Ca    28.521353    20.477823    20.994953
O     21.274802    28.462993    23.280584
O      2.707260    27.192160    10.613879
O     19.938353    27.765006    15.620612
O     32.131973    13.014076     4.792702
O     11.850596    17.834945    18.361730
O      5.581754    11.009950     3.669029
O     18.945173    32.705630    20.681221
O     35.321209    31.138038    32.143579
O      7.346526    35.017624    17.696812
Ca    13.328704     5.051415     1.694941
O      6.333914    25.083413    11.053708
Si     6.970900    11.005170    19.928896
Si    12.208699    34.349276    31.694658
Na    32.369122    10.902999    32.025797
Na    26.980230    23.900851     9.427418
Na    18.201434    28.119077    14.611414
O     12.454066     7.296970     1.631408
O     14.818695    28.801652     5.295183
Si    14.725501    34.527072    20.911796
O     22.127870    13.584494    14.488799
Na     8.827990    11.504229    10.854357
Si    16.993072    24.887159     8.853008
O     16.371684     2.027568    14.009733
O     15.000280     3.600157    26.252587
Si    19.693818    11.237488     0.849875
Na    13.165569     4.335813    17.541781
Na     9.932627    24.622510    20.598051
O     34.778636     6.931735     5.517774
Ca    31.917076    15.197544     3.702127
O     25.162222    18.315733    18.012559
Si    19.372386    27.162104    16.672607
O     16.210604    29.835398    10.717062
Na    34.192647    18.442798    28.421831
O     10.849098    34.894015    11.145999
Si    27.851444     4.122581    18.607940
O     27.228796    19.784788    17.222259
Si    33.303625     5.859249    20.261511
Ca     1.513973     4.124047    20.087210
Na     2.856986     9.272636    11.723828
O     26.276153    20.191166    21.893979
Na    26.002264    33.117152     0.700546
Ca    32.383194     0.764315    15.875161
O     11.170016    29.000747    22.777645
O      5.987500    33.104377    20.746366
O      9.841425    33.942649    25.805009
O      7.458665    27.664156    30.099886
Na    20.515259    18.330994     0.388681
Si    30.134928    34.505565    26.608328
O     33.807746    20.042695    34.951956
Na     7.557746    11.962325    23.135849
Na    28.583086     7.339413     3.334010
O     13.395679    15.879648    34.504485
Na     1.645864    24.969369    28.350809
Na    28.129117    31.012442    24.457905
Na    15.868009    12.430185     8.921322
Si    30.486866     5.909549     0.035483
O     31.073897    33.860833    12.737075
O     19.910086    31.320029    14.388441
O      2.310444     4.493718    18.503031
Na     7.882691    17.944578    26.005126
O     11.092171    34.226483    27.996473
Si    19.747076     4.271409    24.284876
O     30.187168     4.204701    34.826026
Si    10.319149     8.305595    10.876157
Si    13.540817    25.683281    19.209026
Ca    28.218602    20.480298    31.945686
O     13.324620    33.783933     1.858203
O     17.639284    15.034275     5.709211
P      9.031667    22.481687    32.703369
Si    23.914066    17.041565    20.515557
Si    26.971642    28.682184    26.743412
Si    17.171257    18.751354    21.255019
O     20.161794    25.436481    17.196999
Na    16.565723     8.074069    26.863017
O     12.589648    34.962120     5.664461
Si     7.431530    18.409124    29.534098
Na    15.303506    32.523798    26.026849
O     16.952679     7.880576     5.056525
O     17.982979    21.274596     1.732528
Na    11.659504     8.427819    21.101138
Si     4.888129    27.428020     9.213663
O     28.895842    27.741423    17.659551
Ca    26.485820    20.775364    32.769409
O     15.332690    14.107087    33.890203
O     30.611848     5.207441    26.869173
Ca    14.403768    21.415224     7.408825
Na    12.721519    28.388705    21.538336
O     17.755475    26.588818    16.011479
O      1.162021    26.650388    30.858581
O     14.196767    19.212018    25.884678
Si     0.847578    21.737940     8.680701
O     21.763701     7.052497    16.223960
O     19.808227     3.134561    28.796577
Ca     0.302832     2.166028     9.883938
O     14.669352     8.211075     7.535380
O     27.003786    24.640882    13.584298
O      4.030147    19.173070    32.723883
Na    15.271213    25.902659    32.742615
O      6.927028    32.475203    19.595585
O     21.430077     6.860967    22.763869
Ca     2.197933     4.384879     8.326668
O     23.400261    13.987035    25.442061
O     15.514560    30.775205    18.401985
O      6.523194    16.172650    10.696706
Na    29.668139    27.504161    31.528571
Ca    18.557459    15.707942    10.218540
Na     4.624371    23.927694     0.605562
Si     1.656134    30.048684    10.691247
P      7.287819    27.249469    34.664555
Na    13.100742    33.152330    33.099058
O     10.436139    22.377945    24.552104
O      4.529948    28.728538    17.064827
O     31.848570    34.127319     3.249157
O     26.480670     8.298266    29.811554
O      0.934317    15.468742    12.852150
O     20.572047    15.017075     9.294814
O     34.638354    34.472673     8.716101
Si    28.799538    31.818848     4.652777
O     27.482519     6.468469    17.332738
Na    29.143822     9.839012    19.198899
Na    13.987827    32.513935    20.108167
O     14.180630     3.406809     3.348835
Si    23.981206    28.766327    32.081512
P      3.817591     8.570120    10.091629
Si    25.713099     7.790145    24.576410
O     24.603279    20.716623    16.285365
O     32.074564    20.433380    35.264064
O     30.342330    32.318988     6.982960
Na    16.790371     7.124334    11.443195
O     20.021132     8.882089    21.792952
O     29.898710    30.630415    14.105058
Na    10.393015     0.519953     6.710907
O     22.112804    16.985938    20.012641
Na    20.084181    16.948974    17.302180
O     22.847542    27.082440    30.295779
Ca    14.056935    28.584336     9.407706
Si     9.897656    11.764881     6.791334
O     10.348315     8.922245     4.878200
O      8.650276     0.357488    28.418521
Na     2.241075     3.981085    16.233918
Si    19.294874     6.102630    11.190842
Na    28.444572     7.964376     0.690199
O     14.458348     0.971622    17.858433
Si    13.599358    30.655697    34.675479
O      6.111565    24.869891     6.030183
O     15.570548    14.547056     8.752006
O     17.358363    11.031298    17.907431
O      1.501314    15.542565    30.441405
O     25.824440    27.369460    12.615502
Na    19.491268    21.980296     7.660302
O     31.342326    13.354641    26.211026
O      2.851045     5.648950     2.300736
O     28.836094    21.953435    19.830168
O     19.988331    24.162914    10.940949
O     25.063135     0.859227     1.133641
Si    13.109937     3.615421    26.383613
O     22.415038    24.283822    12.688862
O     29.349611     3.632101    25.989913
O     21.889444     1.534909     6.094897
Ca    29.269868    23.805499    29.043568
Ca    24.348725    34.884462    34.885812
O      1.979173     8.256486    15.845450
O     29.312068    11.548390    17.420539
O     35.296348    31.856206    35.159798
O     30.569854     0.381988     7.032798
O     20.179430     4.413881    24.830088
O     34.123381    31.828661    34.396245
Ca     7.222019    32.056478    29.212619
Na     1.806917     2.612837    32.999505
Na    34.805531    11.741592    27.258698
O     30.304612    21.536158    14.111462
Na     9.840549    32.325379    12.200645
O      7.996392    12.003223     9.119010
O     16.939504    28.973675    11.447607
Na    33.878617    21.638130    33.947760
Ca     5.262719     0.692259    25.218655
O      4.420580     0.237667     4.619909
O      2.329291    25.409071     8.454978
Si     5.168144     4.691314    32.706244
Si     3.802814    32.339333    15.529242
O     17.864766    31.379350    17.263328
O     11.641370     7.599992    24.932738
Si    13.512435     6.924265     6.844478
Si     2.793538    30.215177     1.642984
Si    31.766118    20.510873    30.490829
Si    34.105086    25.627334    32.586756
Si    14.235465     8.471712    26.748235
Si    11.197097    27.400112    23.702154
O     15.864407    22.773052    18.087353
O     12.630744     3.698424    28.144745
Ca     0.130015     1.807685    25.823198
O     28.546374    35.282970    10.559020
O     11.562578    13.602108    10.604232
Ca     7.641924    32.538221    32.629476
Na     4.411437    14.283467    14.776946
O     25.279166    16.171302    22.404397
O     18.457423     7.145468    12.344978
O     34.849688    18.998882    29.717818
Si    31.095416    33.875072    12.695212
Ca    14.827548    27.467004    22.085349
O     19.869294     7.184851    14.690399
O      5.161627    27.668696    11.345578
Na     9.385845    16.349320     8.725777
Na     3.892860     7.398060     3.932249
Si     5.610997    24.557753    15.878361
O      6.034395    19.208277    28.734396
O     34.654558     0.187464    27.115640
O      2.637567     6.687721     6.349061
Si     5.126388     4.883962     0.803897
O     28.849419    34.346617    30.772955
O      1.863711    32.561744    12.922971
O     15.635833    21.998467    20.663248
O     28.333293    17.723381     3.572169
O     17.053921    19.866911    26.791885
O      2.094696    20.672499     0.121561
O      1.738486    23.298091    14.398394
O      9.400674    30.692164    13.747612
O      0.034585    27.425935    18.935407
Na    15.833974    23.668243    27.655070
Na     2.878665     2.233983    23.695542
O     26.398042    23.688100    11.375798
Si    15.406112    10.803420    32.959239
Si    18.535094    31.586674    26.735381
O     29.822219    10.279563    15.002822
O      5.814138    21.561229    15.779712
Na    22.234436    34.520591    15.210413
O      9.105196     8.025233    12.239534
Si    11.655391    10.057188     4.659236
Si     5.049404    32.180300    10.738769
Ca    12.176861    32.141586    34.550832
O     29.681363    11.459863    28.055874
O     10.653218    32.950029     9.439026
Na     5.593354    32.549754     3.261177
Si    16.623445     9.395180    11.624383
O     27.755186    33.310405     9.197050
Si    16.215707     7.685711    20.307888
Na     5.082613    29.741152     7.792122
O     28.746592    17.077089    19.839472
Na    13.307118    27.183834    29.055898
O      0.114699    30.368863    21.543886
O     30.677688    22.333497    15.801490
O     14.612194     0.667389    11.971152
Si    11.704296    33.468851     1.445563
O     35.452369    32.974661     3.526944
Na    11.796271    21.347450    16.686028
Si     6.176087    18.037557    35.257729
Ca    13.933279     8.573641    12.155588
Na    23.314130    25.864286     1.107519
Na     8.072257    24.463282     6.918962
O      0.603566    12.673738    27.534173
Si     5.551405    20.043068    20.022951
Ca    20.574307     7.608348    34.726959
O     18.715450    20.519103    19.141902
Ca    20.524850    26.128878    11.143387
Si     2.489469    21.100719     5.069801
Na     3.810511    13.335378    22.546257
O     31.382658    32.026288    16.104602
Na    14.294740    27.789925    16.161974
Si    12.624138    33.650267     0.250244
O     10.086364     1.555531    22.353829
O     16.018926    24.719706    33.389961
O     25.603062     8.165096    24.737616
Na    13.266946    27.311004     0.543843
Na     6.311155    24.040136    34.131258
O     29.399690    33.702195     8.071449
O     15.208526     8.384154    21.452058
O     18.398035    28.287541    23.035421
Na     2.454462    17.319295    29.056588
O      5.381500     5.793683    31.293948
O     15.186071    19.843709    23.755932
Na    28.786561    16.787217    34.172005
Si    27.610623     6.454924    16.963245
O     28.614426    12.896583    34.200020
O     30.238147     0.886880    18.072554
Ca     6.509493    20.528489    10.756687
Ca    11.166192     9.247970     2.384935
O     31.152494    21.195449    12.729239
O     33.912859    34.745843    34.237650
O      9.126237    26.279165    26.378454
O     25.483944    28.384565     2.236903
Na    34.979698     8.395992    27.536928
Na    17.669800    22.832777    17.197261
O     23.928599    30.038074    32.910866
Ca     1.708742     9.948261    29.253841
Si    28.971957    10.653282    15.938957
O     34.369249     4.896748     3.315981
Na     2.828560    21.880815    30.982461
O     31.006422     2.766832     6.652222
O     15.337280     9.004134    15.804526
O     17.133376    27.771126    10.894271
O     32.169519    16.765743     0.868021
O     33.016537     4.960594    18.939752
Si    34.526112     2.940987    23.022993
O     26.507482    23.964364    20.309927
Ca    31.327250    31.836673    13.026701
Si    16.151360     8.923972     8.355570
P     33.360390    17.683599    18.276238
Na    25.694385     6.926058    18.293920
O     32.498534    22.746580     7.216657
Na     3.465069     0.280264     2.947768
O     21.690808     2.526750     4.933205
Ca     9.761384    21.309589     2.014089
Ca     6.722322    12.565892     6.254484
Si    30.292653    25.647988    31.433196
Na     1.498091     0.505893    28.689590
Na    18.418795    32.144491    18.922084
Si    28.852719    33.365326    27.301236
O     21.424282    34.624562    12.599199
Na    20.735640    33.586606    23.521898
O      5.039943     7.986193     9.742128
O     15.581479    32.548807     2.329862
O      5.997592     1.601035    27.531026
Si     3.544424    35.281978    23.103015
Si     6.627088    14.772847    15.815282
Na    29.002817    25.769082     2.511087
Si    26.381433    31.466192     9.869253
Na    17.402331    16.771666     4.827914
Si     8.230021    26.954341    33.468169
P     15.387754    19.612339     5.199832
O      6.859312     3.557186    13.099891
Na    34.332163    31.506757     1.745929
O     22.139650    13.235635    20.245368
O     31.927140     0.351906    19.315172
O     15.270033    27.322799    30.631424
O     17.223153    32.495591    16.201649
O      3.338108    34.169861    11.005777
Na    32.990776    21.768107    14.646928
O     22.772613    18.910728     4.717791
Na    34.555857    28.577406    30.056064
Na    35.452180    15.539325    15.687206
O     30.321464     4.709829    21.190988
O     17.983342     6.144954    35.310170
Ca     1.412368    22.723518    26.479173
O     13.768195    25.478919     0.389787
O     32.763503    16.740196     2.353781
Si    31.266702    10.637662    27.993603
O     28.832272    10.242457     9.962945
P     18.910383    20.662676     0.371838
Ca     8.758849    34.754761    19.620829
O     17.128991    19.440931    20.664027
O      3.441499    18.021738    21.103026
Si    27.722888    15.881838    31.273830
O      4.815793    11.070677    18.945712
O      9.267010    27.690258    30.762454
O     19.465641    27.880787    18.382913
O     11.863551    23.683416    28.927580
Na    27.965539    31.740154    16.486023
Ca    29.264648    20.894903    24.251749
Si     9.084638    26.290048    26.406719
Na    24.853004    31.197465     7.153754
Na     9.702062     6.541116    23.511270
O     33.242182    27.060228    16.358527
O     32.128438     6.416941    35.394312
Ca    33.258782    13.097692    30.453627
O     10.115250    23.532551    11.979031
O     13.178800     7.059667    16.013219
Si     5.133409    30.597100     9.629894
O     19.188897     6.355427    35.009714
O     22.467596    23.940803    15.183201
O     34.203839    34.143011    10.356130
O      1.034343    14.530903     5.780601
Si     9.759479    31.460137     6.748264
Na    11.833036    31.536480    29.632485
O     14.062750    22.189387     5.384337
Ca    23.475670    18.322444     6.522415
Na    18.326171    16.269967     2.554112
Na     7.375935     1.976323    14.810405
O      0.532292     7.860006    17.358006
O     10.590203    23.592168    27.164597
O     24.698030     4.330319     7.079188
O     13.067757    28.267715    24.213344
O      3.773636     8.573354    10.137725
Na    14.657786    31.023953     4.385164
Ca    20.488863     3.599629    33.309298
Na    34.376024     4.250768    17.629886
Ca    11.889778    12.562712    18.524159
P     13.421193    13.847547    11.921403
O     15.945090    27.448484    33.627817
O     21.247848    32.463478    33.749832
Na     5.165648    33.861287    27.307194
Na    13.088680    14.870389    19.515725
Si     9.434631    32.246542    15.929553
O     29.703077    11.917680    28.772777
O     31.251409    18.860433    21.683971
O     24.803082    33.728568    21.198281
O      7.715173    21.489640     5.304976
O      0.027292     6.907575    31.514079
Na    34.608289     0.336105    16.712638
Na    29.338109    21.616596     4.063464
O      3.254755    13.013118     2.173766
O      7.822206     9.791253    20.278654
Si    29.621682    11.532248    28.095093
Si    12.373035    11.778004     5.684664
O     24.877030     8.474088    17.720080
O     11.861856    26.362175     0.843529
Na     6.724176    31.185668    15.626483
Ca    16.344695    10.020535    23.394336
Si    19.074505    15.187824     3.999610
Na     0.576600     2.656248    30.722528
O     17.305784     2.333799    29.720146
O     26.610246    21.706821    30.909727
Na    13.513307    13.291286    22.777875
Ca     7.372192    15.764169    21.743921
O      5.543450    20.075929    19.855875
Ca     1.299273    13.387412     1.771227
O     15.705737    12.164979    32.605955
Na    15.465260    31.762948    23.498788
Si    34.866055     5.084956    16.050088
Si     7.905796    29.859552    14.548341
O     26.998625     7.197452    25.780757
Ca    11.722767    15.233034     7.334100
Na    19.958506    19.201397    10.538752
O     20.870666     2.396379    16.156839
Ca    26.847191    25.589342    31.561900
O     20.671553     3.632936    21.993244
O     18.223980     4.825815    28.982249
O      1.032934    11.398367     6.075767
O      9.152484    26.297616    30.552047
Si    16.703539    33.851769     2.034783
Si     8.163736    34.868829     7.838357
O     12.409871    34.843171    25.987798
Si    23.220345     3.167432    31.648969
O      5.293764     4.031959     5.525799
O     15.747453     6.516448    14.830752
O      3.539483    31.640161    34.586514
Ca    18.468439    31.052852     8.015387
Na     3.500229    17.434174    18.898712
O     28.070076    23.445084    24.382806
O      1.960007    26.481882    29.300313
Ca    26.694000    34.458493     5.293079
O      1.110360    15.308157    18.427093
O      8.345908    22.877551    26.271663
Ca    30.130611    25.269174    10.156849
O     14.495150    28.201522    11.992722
O     19.245175    16.270458    21.754454
O     10.747116     1.679866     2.055900
O     18.041449    17.550051    18.419206
Si     6.078456     1.243217    32.963934
O      9.128632     0.655204    20.939786
Na    20.259034     0.937761    29.035177
O     20.405045    26.690743    32.105683
Na     1.230353     6.284286    16.831393
O      4.557192     7.600947    11.093675
O     28.849881    16.704823    22.813502
O     13.247833    32.607445    17.842549
O     32.052369     3.463766    33.856727
O      1.528953    25.440617    21.058012
Na     2.985371    17.731369    16.570292
O      7.946736    27.458643    10.368066
O     26.736028    10.827818    22.963029
O      9.050103    21.205365    14.882225
Ca    32.334194     2.186983     1.038313
Na     7.631012    13.286440    25.305346
O      4.936693    17.419932    14.336827
O      9.984657    18.941183    23.112493
O      0.227971     5.831041    14.664523
Ca     0.197602    20.541102    13.204562
O      7.533959     1.213605    19.189776
Ca    30.846972     2.404624    31.815083
O      6.968861    30.852761    19.675441
O      1.653848    11.209961    19.491497
O     14.338156    23.472802     4.292974
O     10.808325    20.186085    12.894149
O     25.071218    17.487441     6.432920
O     13.984870     8.061134     1.010240
Na    15.435957    10.522975     5.566647
Na    15.999224    27.431214    11.791945
O     21.399274    15.566306    18.037679
Si    13.974889    29.292856    24.273134
O     18.885376     8.751850     3.773274
O     17.260305    32.186737     9.832545
O      6.190677     6.561696    10.603326
O     28.516006    24.688393    10.826615
O     26.346656     3.818082    24.006214
O     14.063394    31.989367    33.605034
O     14.832031    21.510180    30.940915
O     12.093370     0.759788     7.486824
O     22.303315    10.817451    13.752930
O      9.114634    15.105420     0.304406
Si    11.837601     2.851043     0.654241
O      3.774792     1.836906    34.326824
Si    31.002585     9.631923    21.307876
Si    11.656149    13.600917    24.073441
O      6.215144    13.831663    22.688742
O      1.660610     7.564989     3.144281
O      3.469839    30.487097     0.622112
O     31.760706    18.323674    18.516550
O      3.318390    23.936675    34.074449
Ca    22.308183    13.507495    29.801619
O     28.002740     3.161694    31.589741
O     10.605526    13.557812     9.173133
O      8.433549     7.265907    20.315745
Si    19.585147    13.603232     9.932656
Ca     2.338869    22.902823    12.458437
Si    28.980097     6.097127    15.633102
Na    29.974724     8.899008     6.387257
O     23.791029    29.283224     0.314188
Na    27.710747    19.196337     8.456320
Ca     0.151815    10.686714    30.478645
O      4.706294    21.772196    23.529261
O     31.836501    26.331633     9.861634
O      6.416351    22.799406    35.340006
Si    12.575657    18.022145    26.486701
Si    11.099409    18.185561    31.633179
O     30.456481    13.658525    30.070280
O      3.361089    21.431718     4.366990
O     20.573235     6.471413    32.479660
Ca    34.036124     4.207964    11.869687
Si     5.060265    17.070976     7.925286
O     17.559424    22.493480    10.488262
Ca    15.067829    34.221344     2.503430
O      6.502819    35.096576    26.335380
O     24.545049    22.838992    32.618935
O     31.864591    28.747657    17.236242
O      0.504361    32.268638    24.505978
O      3.612613    29.664248     3.154394
O     13.458087     1.638482    17.295945
Na    13.211041    11.539784    25.620628
Ca    21.314016     3.232612    19.521870
Na     4.857812    12.189235    28.336131
O     32.804834    12.561627     1.440523
O      2.729696     4.506084    33.474905
P     29.881671    18.990778    29.634950
O     13.973349     7.470198    13.609409
Na    19.574194     2.136751     1.819982
O     11.968726     2.579296     0.476352
O     32.831597    21.830347    23.034640
O     23.268829     8.282182     4.703729
Na     6.046334     7.345965     8.169900
Si    19.231070    21.820787    10.576390
O      3.087520    16.120369    14.741224
O     13.625039    30.575880    34.657643
Si    15.304998    27.290234    30.600199
Na    24.656100    24.739997    22.559852
O     10.344616    22.168834    30.293781
Na     9.185753     0.379270    11.834064
Ca    15.921712    21.302484    26.328174
Ca    22.980490    14.652906    21.793032
Si    22.358847    26.652184    31.905515
Na    20.286278    14.154720    19.822977
Si     4.811675     5.173636    24.799844
O      3.263736    22.030660     2.429048
Na    19.342779     5.702078    31.070544
O     30.003880    21.752100    25.674729
Ca    10.459326    19.575749    24.975726
O      6.329337     8.790363     1.925147
O     12.659532    14.350992    13.418116
O     26.508702    27.398271    20.113443
Na    24.129329     0.272350    21.044817
O     13.593624    30.851267    25.148169
O     22.460596    32.579071    28.078255
Na    29.450656     6.677109    26.751340
Si    25.330692    29.714041     0.902388
Si    34.338320    35.306223    32.540115
O     14.505236     9.200140    33.302168
O     10.953129    18.117098    31.769620
O     33.752407    32.160213    35.495378
P      1.336218     9.818755     5.260390
Na     5.141980     1.848881     1.396289
O     12.450887    14.429644    10.611883
Si     0.352910    28.424552    23.432084
O     18.324333    27.958095    24.398813
Si     1.126832     4.257286    25.273432
Na     4.192594     1.961273     6.695467
Ca    32.689436    28.182104    32.620503
O     29.426081     0.873021     3.875144
