2835
Sol-gel 45S5 (v2), N=2835, rho=1.0000, box=46.7665, NC=0.799, seed=42
O      5.266673     5.021258    27.427788
O      8.795143    14.311583    34.807830
O     22.859307    12.535018    14.065078
O      6.644821    23.212886    18.142407
O     45.677081     6.503175    26.191402
O     44.181645    29.331566    31.322364
Ca    17.409367     7.911505    34.018233
P     39.483674    41.879626    20.313000
P     45.338197    34.285675    17.256308
O     33.073728    25.804458    36.624475
O     43.930083    44.772692    19.269888
O     32.972475     9.560322     5.618882
Si    20.634449    40.999179    24.667354
O     23.263841    34.298098    42.295927
P     28.172627    40.072372     4.577660
O      9.575169     3.293266     7.883316
Si    10.889689    13.658596    22.924830
O     45.510944    34.149133     9.691573
O     18.348319    33.432348    42.938349
O     28.101234    18.750142    21.154119
Ca    36.794653     6.518575    33.968238
Na    18.314204    20.106172    15.636747
Na     3.828022    37.909182     9.983374
O     18.755486    43.824841    16.318524
Ca    21.542678     7.923835    26.624211
O     41.992618    30.684839    20.144543
O     35.807059    28.541162    29.807204
Si     5.022862     5.393415    28.975094
O     37.668387     8.675073    20.816158
O     13.177330     5.580243    24.778698
O      5.025837    21.909500     9.439001
O     37.126472    36.602579     6.464761
Ca    14.825458     3.611776    10.282343
O     17.176514     4.140729     7.107728
Si    14.419669     5.952264    25.732792
Na    16.658787     1.157945    20.262035
Ca    13.230202    36.764932    46.602797
O     31.076861     8.991496    14.986965
O     27.512218    21.252295    12.201573
Si    37.340645    12.586295    15.005039
Si    22.175218     5.575388     6.271137
O     24.472842    12.735087    45.138984
O     44.190125     0.128528    37.070487
O     39.001564    17.547904     0.622291
Si     0.501695     9.776898    24.556549
O      9.070860    36.616832    39.829365
Na    19.994366    13.215392     4.988803
Ca    12.149773     4.412373    13.467398
O     23.275324    43.121733     1.698302
O     27.128883    35.562734    22.240942
Si    36.581290    34.980890    38.118126
Na    35.789236     1.290739    23.516694
O     15.328675    18.230794    11.162020
Si    29.762599    26.769767     6.787236
Si    34.775596     1.082182    45.794921
Na     0.140336     0.533921    35.065630
Na     0.870053    14.018591    32.837554
O      5.411565    43.174863    20.058721
Si     6.283872    17.087477     3.141151
O     14.654068    27.139740    29.938584
O     25.549441    27.474143    24.656091
O     20.555363    31.676872    41.448425
Ca     0.198431    16.083829    24.688752
Na    13.731181    15.433940    33.381496
O     32.878311    14.360395    40.575771
O     25.982777    25.855172    37.222795
Na    29.686355    32.176581    28.886685
O     40.337630     8.013420    20.559375
Si    24.494099     4.754840    38.977950
Na     4.213922    30.694619     2.363516
O     44.268510    35.781457     9.769348
Na    37.146963    35.848732    27.305215
O     41.015331    22.899334    36.093492
Na    17.786566    40.060026    26.886992
Si     1.444750    18.539940    44.201289
Si    34.192680    36.616315    26.653817
O     30.783370     5.744094     7.956102
O     11.420209    30.016203    42.321140
O      5.015298    19.955565    43.821193
Na    46.645755    41.669286    30.025763
Na    45.027288    14.051417     2.153196
O      3.519552     9.480544     7.298774
Si    31.694069    38.090103    11.002121
O     34.203638    29.908171    25.627644
Ca    46.656996    17.852387    13.557573
O     17.498958    28.196958     6.811471
O      6.072008     4.739470    30.301871
O     13.249972     1.506637    19.296756
O     25.380929    10.131678    45.566843
Si    22.522359    43.103993    23.079582
O     36.870343    14.864012    42.587530
Na     6.451132     8.336022    24.906925
O     46.345330    43.329684    32.529539
O     35.597849     6.182230    26.443308
O     34.998626    35.298704    26.199448
O      2.283114    18.886765    13.558702
O     30.235962     0.404201    29.824842
Na    11.591567     2.522333    26.432155
Na     2.493281    38.593373    23.533075
Ca    27.307153    37.534058    38.719935
O      7.164390     6.330319    38.556446
Ca    44.254792    16.448961    40.630045
O     37.798970     1.526094    14.140627
O     20.307540    24.326412    30.209964
O     46.355110    43.296040    44.772015
O     33.150101    16.163670    38.812322
O     15.781502    21.513779     8.964467
Na     7.081995    15.358966    35.347384
O      8.883192    36.751307    22.556594
Na    41.292252     1.955272    28.631724
Na    22.568031    40.906520    20.024634
O     14.117728    36.823140    42.169782
O      8.358156    33.261847    21.627029
Si    28.944561    35.541001     5.999828
O      7.591176    11.203287    20.692957
Si    41.738537    35.057049    46.383388
Na    33.746137    35.633507     9.257715
Ca     5.739697     0.415968    37.598292
O     18.092107     5.330018    42.473455
O      1.585049     9.695894     5.370852
O     25.031672     4.764919    32.738509
Na    29.974975    33.370799     7.184972
O     27.395441    23.656319    11.070568
Na    10.168529    42.255046     6.270514
O     36.281814     5.180809    21.883942
Si    31.779109    10.012350     4.637226
O     33.719605    36.392589    28.176396
O      2.609542    18.978348     8.686949
O      1.559083    36.610490    30.053595
O      9.218543    26.025198     9.080404
O     44.913265    25.799286    40.101986
Si    41.117119    13.277408    39.138735
Si    46.711779    28.692027    41.611883
O     33.078036     1.178688    20.131244
Na    38.196804    17.501156     7.913056
O      1.146694    27.977624    38.405634
O     41.049852     6.638623    42.551050
O     27.857078     3.108392    29.674402
O      2.430874    46.167078    22.436330
O     30.697418     5.837169     5.720704
O     45.607962    19.988770    33.007591
O     36.996433    35.052643    29.439910
Na    12.888106    25.095017    38.849166
O     33.893825    45.701527    28.203031
O     19.714935    45.578806    26.317357
O      4.427747     8.786227     9.660927
O      2.844818    45.159075    38.825753
O     17.197283    44.582949    33.542947
Si     7.610945    36.147586    40.008356
O     25.763278    21.223861     7.315764
O     31.204587    11.492455     3.806314
O      7.242282    40.246227    11.770438
Ca    32.687119     1.459821    45.694591
Ca    43.529135     7.587344    30.603118
Si     7.284243    25.015321    42.826194
O     25.312743    37.562855    35.464542
Na    26.220893    33.783761     3.881679
O      6.351189    36.696102     3.879812
O     39.546378    30.737881    36.125246
Si    19.078022     6.398654    26.884755
O     18.701659    13.053588    30.322697
O     25.250734    36.235778    14.093462
Si    31.232976     6.049847    12.867924
Ca    29.737747    39.804599    44.583249
O      6.334901     5.770870    46.438550
O     46.491822    13.635240    31.532738
O     10.978058     1.871551     5.632515
Ca    21.825513    42.879647    15.212483
O     33.760522    20.568358    11.202815
Ca     4.390071    35.882948     0.542036
O      4.387028    44.178413    18.578758
P     39.874191    26.748136    10.000122
O     38.492436    10.574402     2.058324
O     37.662646    13.425431     7.497446
P     23.105632    14.042670    22.318519
O     41.376679    35.478210    42.657259
O     43.203369    16.785513     1.182118
O     26.133659    13.090311     0.289054
O     46.104279    36.197086    24.811662
O     17.315179    12.063592    34.200329
Ca    15.292540    43.658447    40.529004
Na     3.022026    11.240794    41.021652
Ca    22.862025    21.418674    38.259499
Na    19.465202    26.746678    13.051731
O     14.837433    42.200204     1.696213
O     21.811081    14.183680    21.594396
Na    12.730545    42.873869    39.736476
Na    17.750743     5.469054     8.874811
O     40.825635    35.424029    11.591312
O     29.121046    40.981900     5.280055
O      4.555369    27.576732     6.156884
Ca    40.899795    43.295005    44.031121
Ca     5.780229    19.885538    15.551028
O     18.646652    18.227473     4.891114
O     17.986490    15.535279    22.550327
Na    29.561101    31.850141    30.883796
O     18.718834    46.491800    34.671568
Na     4.637097    19.178746    35.053900
O     36.879066     6.001921    26.588857
O      4.783869    38.063144    44.387702
O     45.923153     8.713409    25.242339
P     20.627653    19.377881    24.406341
Si    34.849850    29.463457    39.804433
O     20.882406     5.570978     7.230677
Na    20.490245    22.488148    25.957949
Na    40.579328    13.131722    35.070829
Na    14.672146    41.682514    45.908831
Na    43.781606    22.823950    22.822815
Na    28.787474    19.577293    31.871240
Si    39.451059    42.213940    45.811105
O     38.207954    11.346208    14.455441
O      2.931827     1.096412    23.628082
Na    18.036690     6.181312     6.635811
O     23.126114     0.136297    23.116850
O     24.398941    21.671025    14.741606
Si     8.267047    40.060863    35.473313
O     22.483511    11.273700    12.023539
Si    19.865335     2.404695    31.439463
O     20.545461     2.916867    32.805921
Si    34.829929    45.247056    15.237716
Si     8.383754    28.031043    40.900217
Si    41.381305    31.027395     5.230591
O     14.928226     4.590000    26.423955
O      1.930226     5.721374    41.570110
O     29.541811    10.796267    19.554488
O      6.222319    36.441016    39.248279
Si    30.691414     1.691204     0.253934
O     36.049943     3.194758    21.407080
O     23.814860     5.623578    40.150993
O     20.731138    10.216634    31.240873
Si    20.501797    22.272894    46.518732
O      1.107202    17.532970    15.540782
O      7.568546    28.196584     1.855526
Ca    38.109188    16.500239    44.083763
O     14.242479    14.915222    30.833014
O     38.918755    44.066279    16.785457
O     22.353182    20.195613     8.856761
O      4.511608    19.697683    19.365946
O     39.666638    28.526965    34.652854
Si     2.289862    10.968391    29.083990
O     23.657295    19.475681     2.014859
O     35.569550    36.440871     7.831688
Na     1.314577    15.581347    27.444771
O     20.223449     1.412821    18.580281
Na    10.321069    36.004687     0.774559
O      6.633460    41.916144    12.182598
Si    45.447876    32.962830    22.585344
Si    44.312936    17.132233    34.537571
Si    12.274363    43.811484    11.269353
O     32.739658    44.341289    16.630317
O     17.100812    44.300085    42.826182
Si     7.258770    34.355667     9.027877
Na    20.950881     4.064263    25.436559
O     10.267780    12.985756    26.901319
O     32.196372    22.046624    16.379280
O     45.968217    22.680162    37.692812
Si    20.581414    25.866736    30.590089
O     19.545226    38.113462    10.541676
O     37.232956    12.493843    16.608771
Si    14.207508    40.889564     1.121010
Si    13.461969     5.511148    11.146262
Ca    20.584219    20.514617     6.261481
P     45.372944    42.365888    45.396729
O     39.346757    17.024996    32.377797
Si    41.659258    41.783384    24.265196
Na    36.546800     6.954401     1.498374
Na    27.276808    34.331997    38.558607
O     42.237322    23.223795    33.763525
Na    40.818564     0.472692     0.726816
O     39.182472     7.369379    28.896789
O      6.145998     1.903289    45.611610
O      7.372665    21.969342    12.073689
Ca    31.623511     4.952133    23.163025
O      4.869849     1.962052    43.549208
Si     5.173754    29.002220    11.300609
O     21.951965    31.773977     6.623848
O      2.800808     4.777083    38.323763
O      3.666883    44.191768     5.057721
O     21.869838    19.868450    11.938905
O     19.580266    23.930513    39.917439
Si    37.324234     4.670220     9.558952
O      5.561108    19.050385    41.487092
O     11.727340    41.423401    20.832527
O     19.824269    11.767600    34.804985
Na    34.159817    16.443048    14.396492
O     37.842449    42.167039    35.134404
O     39.991911     5.042065    29.843118
O     27.690409    36.075992    36.886140
O     19.476348    17.129636    43.168207
O      3.322850     6.083879    24.827065
Ca     1.792827    23.302035    39.322415
Ca    29.751021    23.818308    27.720903
O      1.913073    34.229848    13.345146
Si    19.005296    38.068895     7.808741
O      6.811185    42.452448     7.840046
O     32.243727     7.172164    24.015891
O     16.377813    42.073682    27.771865
O     40.094273    42.693790     5.613856
O     14.385815     7.114647     3.659956
O      7.781813     5.716145     9.259686
O      6.148097    35.477682    40.066680
O     23.750982    37.065796    16.168168
O     13.439706     5.408609    46.146391
O     37.594176     2.859073    23.530848
Ca    26.908392     7.842265    18.230819
O      3.940899    46.435925    29.933628
Na    29.882028    31.950222    35.374268
Na     8.678937     3.986994    43.823879
O     13.156685    35.274476    31.324985
O     16.805579    43.526037     3.166420
O     30.729971    25.546031     6.388788
Na    38.508473    21.343731    42.698882
O     34.041453    13.323522    38.793984
Na    43.684430    13.252931    20.669137
O     13.891259     6.986926    26.847403
Si    28.935133     1.875104    21.593371
Si     9.679974    19.769797     8.237374
O     20.798212    43.181532     2.443288
Na    16.975152    27.006299    34.430231
Na    12.162047     0.347322    41.129109
O     36.112927    22.921957    36.226422
O     18.938339     8.871309     9.528536
O     23.127829     8.567262    36.326074
Si     9.714212    11.840561     1.405548
O     25.070909    36.644489    20.997693
O     35.919104     0.931298    44.671657
O     11.099533    15.862213    12.248415
Na    17.130307    21.448394    11.895740
Ca    42.328908    15.501718     7.471075
Na    23.983252    22.653306    41.646633
O     21.323033     6.607930    24.713704
O     23.331647    30.714744    10.159796
O     25.964468     4.246801    39.392692
Si     0.583173    37.227480    24.329346
O     43.126606    22.040661     1.753879
O      9.478390    18.402056    20.307042
Si     4.909535    18.638911    42.900684
O     16.785179    34.273904    26.987257
O     46.622830    20.808055    23.197775
Ca    10.743231    31.689002    15.303344
O     24.917968    46.548348    45.840980
Na     6.190531    43.167910     0.032893
Ca    40.244902    13.262475    31.952352
O      1.812068     5.491668    44.188802
O      1.414382     2.704687    33.336820
O     25.026695     6.285758     5.599964
Si    10.063138    27.394482     9.142222
Si     2.415861    28.337008    37.482509
O     20.010849    32.599525     7.010959
Si    19.173447    10.235160    38.164094
Ca     2.298783     5.315753    21.590843
Na    19.687385    35.628374    32.867784
Si    33.332818    20.922999    16.184198
O     16.336736    22.566734     9.977370
O     39.399976    46.317286    36.345836
Ca     6.425812    41.140366    37.241881
Na     4.239605    10.418237     1.062194
O     42.066121    23.901642    29.722140
O     38.349084    42.843233    20.247666
Na    26.654747    18.000702    11.322269
Si    13.784673    31.035242    39.108271
Na    22.203922    17.717164    29.103248
O     23.430463     8.995286     5.789126
O      4.285466     3.602123    46.597310
Si    27.645735    31.834645    18.408724
O     45.756106    33.972227    26.565004
Na    38.131315    26.646532    25.899424
O     10.213806    35.532099    44.969905
O     46.709238    46.188650     0.782961
O      0.002031    29.765620    20.011617
Na    44.966843    42.101527     6.307069
O     24.868823    35.949575    23.518040
O     19.782553    23.657712     0.148534
O     24.288096    46.383283    17.366215
P     35.864096    37.712456    14.425581
O     22.284463    45.353177     2.614443
O     17.562724    23.268083     9.768229
Ca    20.575201    35.417053    10.401607
Ca    33.795709    34.287663     5.054433
O     29.382023     5.466277    41.816504
Si    21.062980    17.340931    43.341567
O     36.066251    28.750943    39.026749
O     23.401567    28.126003     1.350776
O     30.989613    29.938695    35.207727
O     17.385850    32.231751     5.839413
Ca    36.976918     2.994922    32.993642
O     31.441982    38.875174     2.896190
Na     0.928458    35.797734    44.943559
O     46.664474    10.898968    20.276491
O     23.035446    37.650956    13.782169
Si    18.375844    43.111824    14.925836
O     29.654861    30.251689    34.726490
O      7.764218    34.833450    23.965358
O      3.565022    13.438730     7.167831
Na    17.144673    10.348879    46.600530
O      7.551221    13.688597    30.428288
P     43.472884     0.835295    43.257269
O     34.719273     7.968593    32.016335
O     34.999379     4.819305     0.176355
O     14.358949    17.753937    20.408070
Na    19.004536    10.936015    39.028860
Na    13.399056    42.588401    26.981654
Ca    39.540652    37.560963    40.207366
Na    38.459930    34.837141    28.693331
Si     7.510155    36.239740    23.223805
Na    25.563511    38.326593    23.929074
O     42.305100    11.346937     1.793324
Ca    13.415480    23.969045    24.294968
Ca    41.770525    39.636588    46.406815
P     28.706607    28.749094    19.513496
O     35.310738    15.249405    41.696829
O      2.623266    43.594700    16.880112
Na    45.885494    20.058067    39.377705
Na    36.776340     3.277080    25.724005
Na     8.346585     5.002822     3.596668
Si    21.600387     7.542119    23.432117
Ca    18.023270    25.003930    41.802102
O     26.829231    31.683661     3.122053
Na    19.108132    33.190451    40.324822
O      8.311016    15.692734    37.014667
O     13.957596    26.021302    18.839977
Na    32.964369    21.466716    18.726322
P     36.014457     4.361955    30.689572
O     16.436612    18.902025    32.063968
O     17.728018    28.168434    12.552251
O     35.047642    21.378462    39.414416
Ca    19.003814     6.918504    40.681261
Ca     7.154274    41.117068    40.804959
Na    21.166462     6.458354    19.586771
P      2.569118    27.205357     1.015930
Si    32.651899     9.681629    14.126834
Na    37.390738    11.426281    33.695177
O     34.998073    34.898679    17.651626
Na    42.124041     4.426896    42.131297
O      2.261386    34.164138    10.715892
O     11.947156    13.954284    21.468185
Ca    15.194969    45.415185    29.535248
O     39.449889    33.338686    37.444987
P     34.939770     6.114806    37.737967
Si    36.605797     3.868994    22.759313
O     37.515152     4.760289     1.073213
O      3.480030    10.990377    30.168018
O     46.216112    14.674685    23.070598
Na    20.604160    11.074855    11.540954
Si    30.547507    31.467007    20.332197
O      4.632737    15.305014    34.856784
O     35.273802    38.307753     5.679265
O     14.746689     6.034934    10.329412
Si     2.717531    17.144996    25.231817
O      8.987615    25.204706    36.797752
O     11.518607    34.287768    33.497567
Si    21.731446    17.205603    10.250715
Ca    16.323636    35.103878    43.798912
O     37.475105    32.734021    35.992221
O     21.072397    12.564368    43.101078
Si     7.200340    19.772897    28.979736
Si    44.484057     5.540830    39.776494
Na    41.186392    40.606096    26.765001
Ca    42.705502    30.777091    22.558529
Si     4.892483    42.275678    40.479809
O     24.820448    18.808695    12.335914
O     38.044177    46.128030    34.132990
Si     0.651752    10.740212     6.164865
Si    11.617101    11.448279     7.541290
Na     4.529191    45.083557     3.127492
P      6.122733     2.418834    44.213836
Si     2.215518     6.463383    42.970157
Ca    35.730899    33.344439    40.318706
Ca     7.897454     2.728094    46.047326
O     12.433000    25.896560     3.759914
Si     4.494039     7.179853    24.965836
O     45.743719    39.620395    40.885242
Na    26.086644    22.430675    24.896086
Na    16.995998    22.786871    28.358930
O     19.694282    42.575325    14.173514
O     27.601372     0.333783    15.857393
O     30.611874    43.711734    18.032341
Na    43.400847    11.433382    28.197188
O     46.072368    31.423670    28.484882
O     20.200535    34.902679    39.186384
Na    19.201419     4.479725    43.810650
Si     8.669355    21.691623    13.535618
O     26.753065     4.761414    30.127123
O     45.075137    37.179583    21.288199
O     23.161299    23.372074    29.013490
O     40.270754    45.170189    14.877922
Ca    39.721505    15.900863    45.368267
O     34.583427     0.801679    28.077436
O     14.928791    22.305532    39.958514
O     10.589712    25.112584    38.943379
Na    31.275270    44.431732    10.843539
O     24.681649     3.017000    34.541725
O      8.873114     8.270047    38.186644
O     44.632082    38.785719     2.482789
O     46.434621    15.556884     8.285298
O      8.657894    23.408640    38.720820
Si    40.252829     6.177989    28.732398
Na     4.500272    14.108687     1.430125
O     26.321252    26.760335    24.974024
Si     5.740960    38.868241     7.168573
O      0.515447    26.304954    11.069488
O     37.665652    29.263549    25.626735
O     44.527413     3.942158    39.590840
O     14.009171    45.322614    36.087297
Si    35.183800    23.578675    35.087324
Na    21.620152    42.291857    12.776119
Si    26.711506    46.489551     1.807260
Na    30.455726     8.499436    12.718587
O      9.189550    36.835577    46.114389
O     15.470891    32.940905     1.915832
O     12.681896    40.306727     1.898774
O     26.814226    23.953113     2.735039
O     26.879051     7.269158     6.762684
O      6.477056     8.155981    31.609487
O     10.309710    14.152697    24.343134
O     38.061783    13.977197    14.634295
Ca     5.477931    29.525370     8.864750
Na    44.790496    33.459921    28.953337
O     12.810729    20.635847     2.765428
Si    18.853462    26.274312    33.661719
Na     3.205661    16.413917    22.724367
Na    20.156235    44.254622    18.094976
Na    40.981422    12.319068    37.202722
O      1.198943    16.857269     9.308527
O     45.838517    17.577821    30.951277
O      0.906046    13.770953     9.834187
Si    34.715622    27.627074    30.559073
O     17.688289    38.176417    42.979101
Ca    23.136914    15.542986    11.076907
O      2.771542    39.009061    14.318248
O     37.619061     6.204536     9.947604
Si    37.184748    44.242387    11.849856
Na    27.090352     6.475181    46.019252
O      9.669684    39.515067    34.901637
O      2.389096    29.151231     6.344560
O     14.381885    14.051061    19.201797
O     33.364144     3.838365    44.319453
O     26.247288    26.721303    22.254869
P     30.672887    12.862243     3.037334
O     15.704195     3.104343     5.168469
O     36.689014     6.756557    46.386860
Na     1.485412    35.728999    26.845784
O     19.856840     3.857671    17.629511
Ca     7.422476    25.307950     2.867833
O      3.771406     6.953208    37.299394
O      0.283023    38.355411    30.023398
Na    27.241196     2.497604    46.464615
Ca    40.543875    17.644705     6.915045
O     30.292185    16.073608    32.380623
O     29.023917    33.972563    43.089545
O     29.004181    16.051030    21.123269
Si    42.360726    23.393061    35.359840
O     28.439015    19.417322    35.875488
O     25.984324    23.935730    42.464365
O     35.506479    33.802262    37.899686
O     11.880009    34.614281    26.446190
Ca    23.804772    16.690866    17.095596
O      3.576233     8.216622     1.224362
O     11.588071     9.910315     8.016607
Ca     0.490301    34.676880    10.203755
O     39.790728    22.266906     6.637443
Na     1.112257    23.070987     4.279300
O     18.623943    20.930066    30.948917
O     33.389333    27.577528    29.647698
O      7.652516     9.306910    15.174519
O     12.236273    44.563278    37.824049
Si    28.205219    19.294534    17.499283
Na     3.091691    39.816260    45.828836
O     30.209070    40.080965    20.846748
Ca    39.205782    28.002461    38.404561
O      3.370449    27.918274     8.420813
Si    10.766306     1.749655    25.948515
O     19.390064    14.241506    28.732405
Na    14.099659    20.674051     7.466390
O     39.030847     0.829652    25.066017
Ca    27.346482    14.277690     4.071340
Si    35.946032    39.845795    23.607337
Na     3.857588    19.427132     9.976295
O     25.170796    26.879320    41.310276
Na    27.980252    20.653241    37.668273
Ca    16.224205    26.172297    28.202944
O     42.842521    33.798411     9.433043
O      4.338309    38.764808     7.952135
O     13.380724    24.519888     4.795206
O      8.412578    40.533718    20.863324
O      3.177143    18.589426    43.550987
Si    20.107592    20.227246    11.833553
Ca    42.834603    28.255323    35.896425
O     34.906661    13.637124    31.587461
O     15.020855    22.036196    24.535748
O     31.098133    16.807545    19.682670
Na    13.634729    13.497391    26.680773
O      6.747340     3.430041     8.401510
Ca     7.904115    34.062295     3.611090
O      7.259588     9.102923    21.845060
O     39.674806    15.120895     7.725847
O     31.886909    26.711691    10.770339
O     37.159941     3.413885    30.785119
Si    15.828429    39.493332    22.568233
Si    43.341773    43.622850    18.308715
O     24.613229    21.751726    23.770709
Na    30.548763     4.840390     0.327324
O     16.897936    19.011511     0.205844
Si    20.962651    38.374593    11.259182
Na    40.788401    46.306521    26.783319
Ca     7.297477     2.545119    30.570591
Na    15.896994     4.867322    43.222210
O     31.098941    38.292449     9.429467
O     25.680230    28.962979     1.067336
O     34.888440     3.827901    42.763364
Si    30.999848    44.691167    13.396091
O      5.558573    28.279981    12.687111
O     32.715526    39.266401    11.408382
O     44.307890    18.036197    36.185129
O     27.475647     1.301320    21.957753
O      0.789107    15.972265    29.732722
O     36.163046    12.705309    39.874547
Na    27.285970    32.756354     7.031957
O     13.900369    14.192102     7.105816
O      7.711517    20.457072    13.923601
Ca     0.578254    18.945735    43.766632
Na    23.731672    21.977328     7.980460
Na    37.793280    22.637558    12.720974
O     28.603174    16.649539    28.241077
Si     2.343315    16.013026    37.153985
Na    17.976226    35.891489    38.872877
Si    11.395477    39.451687    29.817800
O     25.668821    18.800071    22.148903
Ca    34.957220     1.884119    30.056458
Ca    36.373151    26.336863     8.290314
O     19.185054    28.283787     4.821882
O     16.943060    46.301813     0.411022
Si    12.433811    45.324999    36.419464
O      1.406451    27.297348     1.943208
O     12.411159    35.728658    42.246860
O      7.914830    12.078017    45.234747
Si    44.657268    11.392170     4.626354
O      3.502668    13.791719     5.895464
Ca    11.119132    41.451359    18.298654
Si     2.109859    43.767568    39.165820
O      5.941832    18.574624     2.627827
Na    45.238929     2.959169    42.812415
Si    36.108653    14.542585    32.159696
Ca    42.167466    24.619840     2.895154
O     41.775923    38.340718    17.893676
O     21.267092    38.159140    22.855927
Ca    12.677043    24.457744    32.041303
O     24.399467    19.613421    27.923813
Si     6.469168    36.212990     5.411080
Si    33.914295    33.114958    34.540829
O      5.470337    35.802685    45.052707
O      9.857866    28.134561    10.557230
O      3.427986    27.087604    37.400699
Si    32.613471     4.404346    45.626455
P      4.690092    36.609788    44.072960
Ca    31.444161    27.910342    22.583765
Na     7.663747    46.192546    20.669679
O     18.167366    20.594813    28.373997
O     17.243174     0.033365    42.194548
Si     3.463420     6.198531    38.687813
O     32.434718    30.807318    29.960610
O     45.254243     5.288905    30.026228
O      3.827684    30.521259    45.987145
O     27.549559    18.213677    16.502308
O     21.756469    22.321660     6.506299
O      6.591975    40.038319     7.874826
O      7.127702    13.156925    33.027410
O     17.759731    38.952408    16.861680
Na    45.345868    43.760338    29.763012
Si    14.832148    41.623106    27.771384
Ca    36.941835     6.846010    40.784026
O     11.980522    12.484991    23.082421
Si    29.648805     4.952452     6.563194
Na     6.925323    23.429264    28.961405
Si    39.554974    28.843536    25.364492
O     34.342951    28.366029    31.940073
O      7.148174    12.107794    32.463686
O      1.834754    35.648728    38.641294
O     45.067649    20.192721    37.250709
Na     6.105726     2.920326     1.452586
O     38.335232    15.871327    40.502332
Si    19.176552    22.420665    40.304055
Si    25.204427    38.311122     4.337878
Si    25.519349    25.417394    42.039427
Si    16.873852     8.247535    21.862622
O     37.346088    19.417547    39.949732
O     18.097706     1.657960    23.933806
O     19.415324     5.699491    25.474260
O     34.002368     1.162565     0.670720
P     16.820338    10.495149     2.149541
O      2.238176    38.363697     3.131840
Na     3.288605     5.508030    27.236193
O      8.154209     7.569001    40.630870
Si     4.101845    30.765972    19.576850
O     12.226961    38.504951    30.820010
Si    45.832454    21.445282    36.668732
Na     7.317986     4.818002    34.012509
Si     8.096586     4.289472     8.583209
Na    38.384885     3.302341    22.243246
Ca    22.906215    18.398647    23.425489
O     39.407212    42.294313     8.240178
O     36.017044    37.400931    34.554250
O     32.858765    35.752790    16.307280
P      0.644319    11.611856    21.351126
O     22.088311    13.660817    43.595177
Ca     9.111836    39.302294    40.385684
P     13.077616     1.498567    28.732696
Si    11.930462    29.251432    14.988254
Na    23.582985    38.391321     9.090536
O     39.622408    43.620205    46.576062
O      4.257401    44.091485    14.782595
Si    24.463119     8.816902    37.190240
Na     7.274655    19.112215     3.645774
Na     6.079460     7.149963    10.630946
Si    40.131528     0.210455    24.067420
Si    19.112042    20.180639    29.610179
Na    24.397829    38.870757     5.816234
O     43.579641    15.793386    35.049299
O     38.448778    44.568483    35.474737
O     34.045708    26.862865     9.271267
Na    33.114396     5.711478     5.981516
Na    39.416604     1.712576     5.779712
O     15.600515     6.660404    24.898382
O     28.306799    17.298547    31.225395
P     26.743055     7.182391    34.596464
O      5.249725    22.369433    11.988144
Na    10.142816    33.987667     2.803616
O     40.781720    46.393163    45.198389
Si    22.490504    15.356308    25.040418
O      8.371342    42.874058     3.630715
O      1.532566    40.894102    15.640771
O     30.038456    20.355834    34.069291
Si    46.524459    40.823051    41.617473
Ca    33.178923     7.882851    42.137186
Na    38.958931    18.716075    10.752969
O     20.060478    41.886631    25.881885
Ca    12.356733    32.530097    36.093428
O     41.552731    33.542095    45.871048
Ca     8.228356    10.446504    13.318292
Ca    18.482312     9.173122    23.441206
O     37.376267    40.022158    16.470960
Si    30.035906    32.287692    45.970882
O     27.082098    45.030316    17.417875
O     38.849424    20.475976    12.663149
Na     8.276494    38.430473    42.480980
O     32.954079    36.925084    25.672681
Ca    16.164425    28.022794    31.739220
Na    19.106826    10.208778     7.699341
Na    11.440820    11.797154    20.540994
Na    39.540110    37.261732    42.393503
O     40.016154     7.982261     9.365244
Si    28.220057    46.048625    16.907782
Si    12.747920     5.178187    44.710968
O     23.718501    19.653759     6.665527
Ca    28.188535    43.752220     1.440324
O     43.706127    11.010938     5.868165
Si     0.221738    39.909114    28.954041
O     10.917059    19.666650     7.212151
O     21.274585    44.523085    27.306279
O     31.383081    10.654294    13.936774
Si    14.826898     1.686393    19.567111
O      5.550575    43.743590    40.545010
O     40.773018    42.601494    20.504312
O     40.946796    23.803973    39.367923
Na     2.728077    28.840838    10.349591
Na    19.787440     7.432358    23.701512
O     44.444633    12.096976     0.840906
Ca     0.294612    46.358011    15.251855
O     21.643605    11.358758     9.530038
Si    12.662443    33.199767    45.840760
O     26.612868    23.362972     5.292004
O     40.522134     4.381701    35.548846
O     23.285385    41.604826    22.361547
Si    41.938122    22.240338     2.821462
O     22.827679    45.805558    29.246935
Na    25.011948    44.979179    23.513135
O     13.552922    44.187633    12.437283
Na    37.036122    19.290388    13.409704
Ca    30.095330    27.828797    35.513998
Ca     3.857938    44.019601    46.735749
O     37.244645    35.394061    36.710522
Na     1.632999    11.564664    20.886952
Ca    16.222670    30.301428    45.153842
O     15.548771    29.419768    31.987190
Si    27.482087     7.978038    43.264642
O     35.637222    16.081804    32.134010
O     37.615211    15.694187     6.187774
O     11.309563    10.127760    27.137187
O      7.210323    40.042194    34.258782
O     15.919953    15.840731     7.113691
Ca    23.746881    10.445899    45.746690
Na    28.329880    25.832028     3.127611
O     37.107856     7.900916    22.633315
O     26.751175    19.486317    28.290275
O     27.521273    31.747251    29.762578
Na    18.158130    36.997001    30.380632
O     27.354830    21.493597     3.611728
O     31.008110    39.386026    41.409006
O     27.743617     8.039970    33.901098
Ca     0.285565    32.277402     8.306172
Na    44.120268    41.594999    39.562905
O      9.774290    18.577072     9.314692
O     22.655843    12.693898     3.422419
Na     6.803050    39.219428    43.728721
O     18.183000    19.701471     6.958441
O     24.502259     9.780604     8.119382
O     17.019755    45.017233    40.266468
Si    33.646774    20.207485    29.337047
O     25.466610     4.913221    34.847357
Na     0.275454    44.529388    46.730652
Si    24.423853    10.023298     6.529711
O     19.718578    38.796075    30.530312
Si    33.526454    21.015070    12.731788
Si    44.242265    14.092744    27.031850
O     14.685054     9.177117    31.688176
Si     7.215284    44.010856     7.827077
O     19.140760     9.081162    19.293904
Si    25.681568    20.175925    29.276421
O      6.429461    35.993969    22.055988
Na     1.272762     7.026192    43.029869
O     12.902442    11.640177    16.204823
O     31.125514     8.731360     3.913362
Na    27.337375    19.654500     7.244885
O     35.342322    34.527489     9.550206
Na    34.988440    19.181313    39.375972
Si    24.822243    28.341247    40.581125
Ca    15.208378    24.845490    39.449047
O     28.691356    16.383460    18.428559
O     38.066703    37.378748    28.853507
Ca    18.953960     7.362286    43.224475
O     29.658108     2.078471    45.848098
Na    34.751741    30.849247    12.411899
Na    14.935391     6.863186    23.554476
Ca    42.036064    30.128825    31.832669
Si    38.705424    29.540741    35.453120
P      8.352694    42.272447    25.697900
Na    35.906548    28.672860    36.440337
O     34.193209    11.051967    39.229175
O     18.268848     8.670620    21.179186
Ca     5.415039    12.510009    13.680006
O     43.124002     6.135469    40.443738
O     11.684657     3.463355    10.552292
O     16.369094    34.716278     0.518424
O      7.601890    31.714147    19.584624
O     17.701784     9.588574    38.254849
Na    15.607739    18.624763    18.443580
Na    15.092663    11.841358    17.498330
Na    41.358320     6.206146    32.177469
O     37.808971    31.311864    15.412036
Si     0.342072    13.002124    32.878424
Si    33.229140     1.242949     2.313031
Si    43.628516    45.869585     3.256850
O     40.778827     7.436951    40.051730
Na     7.794284     6.759806    32.856100
O     18.990684    18.517548     1.238276
Na    10.783035    20.477330     1.552394
O      7.088564    38.712399    38.893222
O     22.326331    43.339523    30.036941
Ca    31.331828     5.759713    43.039715
O     30.431495    36.522501    42.025367
Ca    25.121371     0.529696     8.277628
Si    13.152323    30.838897    33.999003
O     45.487103     3.326498     2.011233
Si    17.819034    14.100669    29.476119
Na    38.792912     9.040463    40.300522
O     45.248848    33.596836     9.506949
Na     3.503036     6.833450    22.117078
Ca    16.746892     9.023091    26.441753
O     42.986178    20.451492     9.129422
Si    43.245072    38.469343     1.728992
Na    40.713526    39.068908    13.001697
O     38.958174    35.182837    41.625593
Si    38.684017    40.057764    17.409376
O     43.850477     6.408248    12.860701
O     46.520131    24.602562    39.994428
Si    38.269405    34.682730    21.922238
O     21.698362    18.416571     7.188119
Na    19.985758    45.103962     1.000273
O     22.666567    17.948226    27.654234
Ca    43.033824    22.092631    28.675396
O     12.325534    32.484906    34.643879
Si    18.477535    36.800166    42.705017
O     16.285163     2.158885     8.727105
Na    24.991313    14.302665     5.712490
Si    45.448933    23.417919     6.729584
Na    28.575835    11.861828     8.523986
O      6.291550    40.166940     1.264223
O     16.024616     4.340011    23.317023
O     34.649010    40.688537    23.160550
O     46.406534    12.167597    22.301199
O     40.080447    18.758398     4.982297
O     25.704686    30.809312    14.184706
O      9.281941    17.264856    16.926316
O     20.733835    46.058743    28.615282
O      2.768617    11.588461    27.677432
Si    26.459179    32.830194    30.302291
Na    26.520282    38.515599    20.627493
Si    24.153005     4.452129    34.038693
O     41.961602    46.190197     0.765612
O     41.802696    28.168133    31.032651
O     14.996285    10.184815    15.701867
O     10.110837    34.887548    24.527674
O     44.537282     1.977198    25.443534
O     38.675469    22.261240    28.622517
O     24.651270    21.877958     1.832023
Na    37.057184    34.477319    10.991505
O     13.461299     2.389622    19.084712
O     17.298039    11.848677     1.749713
Si    30.111326    38.477692    20.736936
Na    11.655066    34.997711    31.373757
Ca    22.193849    12.169430    33.811177
Si    11.469907    33.215691    39.813953
Na    37.129820    33.510808     8.062591
Si    13.980552    27.607220    18.563503
Si    38.339601    24.602016    46.611118
Na    41.004315    29.039928    45.279860
Ca    39.158000    27.123451    19.939793
O     30.677472     5.821612    22.435092
Si    32.086334     0.575354    21.246867
O     35.400903    15.075148    40.380779
O     19.174517    26.940625    35.091772
O     14.682611     4.150264    21.917409
O     45.046800    20.199400    25.227471
Ca     5.139555    32.163296    13.743294
O     39.390409    35.401034    22.827495
O     37.649330    17.431834    12.029124
Si     5.792957     1.914947    36.353627
Si     9.436646     5.842245    23.595155
O     44.287096    42.217672    31.297802
Si    16.203598     0.890161     7.739285
Ca     0.089878     0.604788    32.262948
O     38.062875    12.898130    20.234060
P     20.796508    20.710621     3.357702
Ca    34.288855    45.177550    13.384123
Na     6.847518    27.371604    23.354256
Na    19.238795    14.059345    14.596416
O     16.173586     5.428987     5.177260
Si    11.156284    39.723890     2.676538
O     18.625098    39.700710    38.196679
O     39.229129    27.035117    15.946985
Ca    33.647878    39.132657     3.902042
O     34.460460    46.373926    16.326641
O     43.572315    37.703751    23.464284
Si    23.801076    42.421264    19.609245
O      0.275883     3.726430    31.125915
O     31.380993    31.325031    44.979601
Na    18.675644    35.976882    45.970264
Si     4.695154    12.371604    39.586849
O     10.576059    39.597988    17.060415
O     41.832735    27.022593    16.036635
O     26.982872    15.465305     0.859879
Si    42.166645    46.044840    45.941864
Na    31.164474    25.895178    21.988338
O      0.856928    44.767960    39.019261
O     27.746207    40.743250     3.317426
O     17.940324    26.025690     5.337842
O      6.447054    10.253931    32.006465
O     36.238679    23.266626    29.150684
Na    37.733853    10.604568    29.774277
O     42.548763    44.529489    45.554830
Ca    35.577302    34.426971    21.435743
P      4.807490    22.215143    28.219192
Si    18.473111    31.921961     6.985708
Ca    41.380378    21.566969    39.533266
O     34.841089     8.768699    21.618818
Ca    28.326556    25.114283    40.067612
Na    29.402799    15.960172     0.407350
O     21.114686    11.248928    15.574055
Si    13.883877    44.374776    42.854401
O      5.459682     3.088041    35.302496
O      8.035916    43.576192    26.345974
O     43.035498    43.015786     5.068500
Si    45.650121    18.691459    32.055064
Na    35.241240    43.175019    38.438789
Si    13.785550    35.767195    41.000707
O      3.243104    29.582665    38.079256
Si    36.212312    31.391152    15.603074
O     40.349390    24.557411    27.796187
O     16.069075    33.882892    41.777422
Na    21.295752    21.907559    34.836066
O     11.619423    13.606266    11.014943
Na    44.512804    38.231579    10.391199
O     42.814896    41.269055    23.269170
O     26.578729    11.407538    30.660508
O     18.137869    39.418426     7.672961
Na     1.570602    16.273638     6.132607
O     20.931754     6.881152    22.125154
O     34.562757    25.046189    35.278044
Na    24.019713    42.248399    23.866268
Na    35.297806    15.446609    37.816573
O     19.875523    37.155482    37.897475
Na    24.908785    44.649460    16.093017
Ca     2.222592    20.100053    32.993869
Ca    44.085336    32.252601     5.287885
Na     9.475823    15.976507    44.536144
Na    27.799308    14.594765    25.313272
Na     1.338618    28.942847    18.252124
O     13.665066     3.197137     0.410807
O     43.216019    42.024367    37.692358
O     21.698888    25.935440    31.747081
Ca    32.279422    40.468697    24.258240
Si    21.548588    33.277088     7.036209
O     26.862690    13.620539     2.758151
O     20.802329    38.044005    12.826698
O     44.954023    40.326462    36.757825
O     37.229413    42.460209    37.403289
Ca    19.922365    40.032937    33.692898
Ca    29.151879    21.494024    45.914325
Si    17.346742    38.806373    37.799103
Si    28.132791    22.737508    12.167929
Na    14.369301    42.075699    21.381127
O     38.564346     3.351698     9.023500
O      8.107172    35.678797     5.486051
Si    23.765215    22.892302    15.577652
Na    11.771647    16.071345    22.535990
Si     7.909840     9.903846     4.209051
O     29.397657    38.129729    19.336329
Na    11.236011    28.072945    42.655886
O      7.778084    35.819658     9.451128
O     41.877219    43.998467    17.289410
O     43.403554     4.965909    44.273206
O     46.052490    41.665127    46.522452
O      8.773704    13.819106    43.554320
Si     8.814286    16.094278     4.527473
Na    39.701864    27.461420    40.743596
O     39.442281    25.381798    38.369940
O     20.799191    20.603288     7.677803
O     10.938878    38.168369     3.030363
O      2.857561     7.131780     8.208825
O     28.827358    38.765922     4.286775
O     44.936757     1.988525    35.805098
O     34.534722     0.394531    25.512447
O      1.170372    15.582439    38.169317
O     45.693330    33.075459    20.998156
Si    26.489519    25.764082    38.748250
Na    21.088599    20.222343     1.203348
O      6.416246    41.883218    14.141724
Si    36.326728     9.269321    42.587374
O     13.153853    44.775352    41.476467
O     35.889326    32.134347    16.994276
O     11.987015    13.070710    19.604215
O     28.094870     7.716282    34.924574
Ca    41.252381     6.469179    26.572786
P     43.383816    12.373216     1.850093
Na    23.151964    19.943027    31.044489
O     39.804486    10.128804    10.845709
O     12.372270    17.041235     8.250227
O     11.627397    27.045236     8.989844
O      1.305713    32.601141    27.095983
O     26.683194     7.732021    33.212837
O     35.430201    19.792281    44.128557
O      7.640064    29.431277     4.815867
O      7.644384     8.419481     3.644876
O      2.430518    45.827509    18.300997
Si    45.931464    28.397161    19.874804
O     25.515844    40.018285    22.300099
O     14.314354    42.828588    42.727549
O     18.161426    45.614210    28.456954
O     32.244763    21.061607    25.609875
O      4.159713    40.038318     3.836116
Si     9.186564    14.512756    36.356513
Ca    10.470412     8.308499    31.563357
Ca     6.786311    38.039374    10.475848
O      5.898344    16.017621     2.001468
O     45.786575    16.907859    35.145964
Na    17.230372    10.735584     9.912939
Ca    35.227008    45.395882    44.011782
O     44.866318     6.453138    21.647089
Na     3.608195    32.501904    45.435044
Si    37.377888    23.016290    28.040894
O      8.780341    13.981953    25.667412
O     29.804114     0.786443     8.059435
Na    46.125449    11.451382    45.949608
O     46.287422    17.272575    28.479741
Ca    22.525486    21.211019     5.298118
Si    27.730514    10.661258    29.818749
O      8.273065    19.754636    30.180164
O     26.967831    11.202830    19.745839
O     11.007827    33.955792    36.812051
O     31.633946    23.558346    26.087359
Ca    34.772535     1.038667    14.289293
Na    24.065437    23.653046    44.184206
O     26.289710    29.186480     3.653606
Si     1.066458    44.828472    22.555650
Si    16.027522     8.288686    31.712095
O     17.968243     9.559257     2.312392
Na    24.522984    44.426543    21.063690
Na    17.536068    29.629522     3.947124
O      1.323995     7.569738    30.550371
O      8.515340    44.162488     6.889548
Na    13.489104    39.218212     5.706452
O      6.125800     4.037983    43.812512
Na    30.307969    29.430667    32.365642
O     37.744669    14.992474    32.121928
O      8.877094     0.818861    44.945123
O     35.760198    33.286027    34.550267
Si    23.345573    28.982115    43.397949
Si    19.117361    10.177727    27.513032
Si    24.048410    40.105659    21.643512
Na     6.488341    28.604320    17.754555
P      8.175132    10.268972    21.696028
Na    10.995452    20.496902     9.859179
O     16.063470    23.401291    26.454874
O     37.104373    40.728153    24.294207
O      5.458232    35.076090     4.681267
Si    44.302843    18.940160    37.832687
Ca    31.387448    13.688941     2.776555
Si    31.691733     5.697681    23.679285
O      8.285948    10.994874    22.992517
Ca    38.671498    15.143158    12.698879
Ca    33.033149    29.181313    41.551616
O     15.630883     8.385105    20.848618
O      9.574706    28.398978     7.982687
O     15.378124     2.540972    20.949257
P      7.016828     9.483802    30.865255
Si    37.606100    33.457097    34.559705
Ca    10.386976    31.247647     5.275119
Na    23.853303    34.081700    22.458564
O     32.811581    46.120443    22.004655
Ca    29.113093    23.290565     6.113375
O     21.760105    10.892368    28.463903
Si    33.704436    45.046030    36.571655
Na    31.759725    15.266213    40.613754
Si    25.089669    45.149138    45.063272
Si    19.078933     4.399418    41.606128
O     23.385321     8.970778     0.040335
O     12.419212    11.476487    27.575730
Si    44.968323     8.345099     9.331883
O     19.063107    10.872560    26.061700
Si    41.172317    25.076223    29.079045
O     17.725900     3.934673    36.439836
Na    41.613651    44.504391    13.122190
Na    37.265997    32.657756    16.116015
Si    41.067893    17.512372     4.728383
Ca    46.308603     0.651199    24.392206
O     27.668335     7.412289    41.768868
O      5.297971     7.574583     7.484206
Na     1.682617    12.617176     8.323709
O      1.571409    19.852363    39.900764
Si     8.855870    13.377435    45.100371
O      3.339531    22.042152    28.031390
Ca    16.738612    45.052060    31.075357
Na     4.602108     3.725329    40.149813
Si    35.595850    36.761486     5.991428
Si    26.598042     6.537818     5.356172
O     17.510081    16.597476    15.432502
O     27.992259     7.742242    15.873493
Na    43.743533    33.356606    15.041718
O      1.476303    43.934954    23.830700
Si    26.049031    13.856900     7.940953
Ca    18.730543    18.733109    44.806342
P     44.080637    34.333464    10.066200
O     27.757214    45.892243     2.875818
O     35.052364     2.668206    45.799885
Si     2.048549     7.215582    31.943818
Na    34.884912    40.142959    36.749815
O     29.368391    18.548400    18.325366
Na    37.427504    35.773553    40.419619
Na    31.758692    45.108797    15.408710
Si    31.420278    44.923302    17.346276
Ca    44.483397     8.040863    40.105533
O      6.159547    30.244600    11.023473
O     46.501032    33.869290    18.089698
O     14.466266    40.655480    29.005049
P     15.888266     3.331856    22.228386
Na    19.695008    38.845882     2.118756
Ca    14.575597    32.986021    41.596126
Na     1.920231    41.695267    38.936905
O     19.687859    30.273674    38.990456
O      7.852107    27.784981    27.610744
Ca    39.476140    37.890381    22.263195
Na    43.212451     6.217612    42.800031
Ca    11.405897     7.681671    22.871494
O     44.024923    42.205249    18.649028
O     20.305977    22.006291    44.943080
O     37.119711    41.751928     6.061729
O     42.218615     5.199893     6.287711
O     46.588571    45.784630    22.915279
O     16.146014    18.710730     5.602304
O     23.052538     3.925365    35.089213
Na    11.695973    39.527591    35.919161
Si    32.978126    36.511974    21.461890
O     11.941101    15.428783     7.015282
O     32.619512    33.441738    35.440191
O     35.654160    29.881244    15.575829
O     36.998048    10.663208    43.032917
O     21.820767    40.091204    13.998964
P     40.197258    20.963199    13.070650
O      6.047651    32.323585    16.060510
Na    24.358000    26.430261    15.204284
Ca    13.923543    36.480433    40.745162
O     40.678180     6.303683     0.542267
Ca    37.296950    35.806300    30.776446
O     46.393344    16.138146    20.854288
Si    35.333950    12.038746    38.666080
O     13.908311    12.350632    31.312609
Si    43.961411    41.528141    36.354356
O     26.745976    39.225836     4.462410
O      6.105064    37.540616     6.289827
O     44.193575    43.158852    45.844387
O      6.004647    40.229371    45.411745
O     43.353170     0.382220    34.773008
Ca    28.380811    10.336269    26.688892
Ca    32.427594    28.539900     6.153415
Si    18.590859    27.346845     5.988574
O     14.869576    43.161160    14.394707
O      7.317155    34.260649     7.421744
O     44.604423    16.822463    29.183971
O      0.154711     5.164008    20.650374
Na     6.981533     9.804209    27.425604
Si    39.161453    23.109282     5.418215
O      9.873245    27.631452    41.362647
Na    29.224843     5.084889     7.437540
Na     3.583517    15.301148    30.847277
Si    28.045661    22.110458    44.431044
Na    24.179904    29.158972    45.907291
Si    38.789484    37.264357    10.879796
O     39.322097    13.747293     5.530597
P     14.711883    36.194449    35.765003
Si    12.175593    15.081753    11.340077
O     22.479817    45.918782    19.205152
Na    11.957924    36.508730    29.850502
Na    42.600909     4.716482    30.973517
O      6.435670     5.878375     2.332275
O     39.647910    11.262627     4.282027
O      0.080243    19.406539    32.860561
O     11.401813     1.573469    20.686501
Na    38.415556    17.402170    34.587117
O      8.724955    41.496060    13.569994
Si    32.748957    14.608299    38.921889
O     18.538122    18.106165    17.087208
Si     5.241140    40.348490     0.057666
O      9.166716     0.200889     9.454904
O     46.699240    23.574508     7.731738
O     22.647138    43.344100     4.291878
O      5.165129    37.105212    11.699382
O     23.214789    12.320618    16.696761
O     33.429636    20.969035    14.457993
O     17.081671    14.755737     8.979389
O     19.466842    20.878137    46.681455
Ca    41.241819     3.420027    11.496402
Ca     0.917322    19.974646    36.314656
O     15.095095     0.489785    18.523895
Si    32.468233    27.176797     9.342811
O     33.052612    27.570833    34.641676
O     10.345844    29.458036    14.792291
P     44.518390     0.563624    35.683752
Na    38.898735    25.766339    11.565130
O      5.696113     1.378568    30.892693
Na    43.041785     5.085903    33.769073
Ca    44.101729    26.333181    34.590482
O     21.867179    19.922659     4.030665
O     20.582577     4.745917    42.065579
Ca    33.505823    35.663539    12.387262
O     28.848424    30.080261     3.564625
Na    28.780429    37.578118    45.002559
O     43.714695     4.878782     0.817514
Ca     7.585897    28.577198    41.780665
O     44.355007    22.122648    10.669119
O     40.135231     5.458103    27.297116
O     31.960277     1.467077     1.283483
O     28.474716     5.091637    27.632026
O     28.914772     8.288036    43.930537
Na    42.102950    18.483861    40.432430
O     37.506424    33.555598    22.782199
O     32.451738     5.044314     9.636785
Si    15.426459     6.758892     4.835796
O     36.548230     5.747952    30.570410
O     25.734573    19.934254     0.441021
Na     6.155369    43.026544    25.834804
Na    23.104012    16.873011    26.617494
O     41.218364    13.684555    37.578990
O     41.645335    45.185848    15.626938
O     16.461318    22.758995    35.422331
Na     2.603264    40.532475    21.139462
Na    46.198258     9.313390    28.262711
O     20.603175    38.264021     7.780286
Na    20.244937    17.005279    45.179186
O      7.755310    41.195862    26.537064
O      0.488628     7.424241    21.993647
O     39.101426     9.396468    18.689933
O     43.400546    35.586400    25.831780
O     19.097692     8.288191    27.198894
Na    34.501059    42.244684     1.972810
Si    16.579943    45.396162    41.768160
O     35.183261    27.325889    36.094077
Na    18.149671     8.014904    31.815489
O     42.118667     4.865093     5.522105
O     19.099025     2.383587    21.592111
O      1.820956     9.441980    28.878330
Si    29.121916    35.114102    37.115559
Ca    41.490019     2.792099    22.498931
O     36.152068    42.972966    36.952724
Si    19.600515    45.187297    27.874832
Ca    30.625441    42.772208     5.479062
Si    22.441538    31.953611    10.674591
Na    29.501629    13.639300    37.799140
Na    16.040040    15.964134     4.501011
Si    26.152169    14.214686     1.441243
O     28.935348    23.542676     4.233806
Si    37.760761    46.707745    13.859820
Si    20.961094    14.382343    27.988691
O     14.466565    43.778920    25.421475
O     33.409139     3.290316    44.779136
O     43.122622     0.219537     4.300726
O      0.118447    25.848014    37.765214
O     43.330432    26.580953     1.742828
O      4.115601    10.878820    13.903384
O     21.985096    31.816078    12.212396
O     10.248964    40.188773    30.674720
Na    30.315021     6.832302     9.200077
Si    44.578098     7.649920    25.928129
Na    42.521129     1.158049     7.182864
Si    29.675235    16.054591    19.659790
Ca    23.867453    15.311349    22.862133
Si    30.512019    14.788233    36.825459
Na    25.344051     3.351689    31.515786
Na    22.140465    12.184718    26.622917
Si    39.439271    45.747210    34.840656
O     24.600001    39.749188     4.736294
O     13.020096    28.275965    19.669127
Si    11.507677     3.064630    21.284274
O     16.816673    14.905131    30.445765
O     26.537562    13.569752     6.433975
Na    17.042262    43.956084    46.568172
O     44.044386    28.430077    46.736711
Na    32.229145    42.415541    29.681811
Ca    42.336535    36.669588    46.158738
O     29.820167    45.485964    17.127029
Ca     2.362059    20.413314    25.317997
O     32.367648    44.558856    14.234969
O     15.614344    37.472761    31.065356
O     33.176662    37.764911     1.344703
Na    42.738956    41.723578    21.911001
O     35.350671     5.054368    36.775299
Ca    25.171475    16.017004    25.953018
O     31.115416    26.973282     8.065023
O     23.072319    36.713352    41.337430
O      8.151071    12.761428     6.242736
Na     7.788778     1.468870    39.123209
Na    35.102413    22.308914    27.180159
O      3.431728    21.222112    17.552625
O      1.786211    15.831966    25.258202
O     27.326638    23.572892    32.646055
Na    16.752432    13.141145    46.446147
O     37.336998    45.589817    38.753019
Si    31.258876    22.031527    26.434122
O     31.367448     6.178050    14.467168
Si    34.830339    38.372202    35.044620
Si    23.000359    24.723470    28.153299
O     39.765198     0.403952    20.422967
O     16.422506    18.723146    16.111821
Na    13.843153    26.578406    44.801937
Ca    15.472130     5.242015     0.879466
O     21.168265    32.177218     9.714968
O     37.293431    20.019852    39.090119
Si     3.966342    15.990731    33.561480
Na     5.308899    44.113339    12.079118
O     43.995895    11.901681     3.184489
Si     7.966264    45.767306    23.319633
O     18.583845    41.601234    22.196252
O     34.851944     9.110691    43.213434
O      2.203382    34.914693    41.134198
O     33.826524    39.969909     2.649486
O     41.939715    12.356412    40.171790
O     20.645446    10.363960    27.142446
O      1.653907    40.220026    29.620618
Na    24.078147    45.289708    25.558519
Na    27.112314    12.657064    29.169133
O     18.805721    21.954136     7.953682
O     17.290637    23.246213    33.083722
Na    19.445103    16.220442    29.784731
O     28.885974    14.834268    30.574274
Si    20.405009    36.226458     1.629268
Na    18.068272    34.528726     2.165418
Na    33.245180    19.601579    13.350478
O     31.220409    45.240251    28.771184
Si    33.007665    14.112491    42.229654
O     39.674118    14.491059    36.697838
O     29.487827    36.414891     4.761572
O     29.680567    22.575677    11.755255
O     33.689482    38.382483    33.908645
O     15.087194    46.629529     8.278464
O     35.367275    35.908308     4.645344
O     24.444440    13.987160     7.961478
O     22.711954    44.597135    22.412384
O     43.193865    11.746586     5.196392
Ca    39.931883    32.582398    15.356299
Na    44.807424    45.209851     4.788288
O     34.750258     7.427844    37.059647
O     40.005565    14.487654    21.039504
Si     2.363392    40.566374    14.301210
P     42.094130    16.024559     1.822930
P     16.471750    33.270134     0.862272
Na    41.904684     1.523217    45.542330
O     36.242680     5.105251    44.733257
O     15.355169    39.710913    21.044822
Ca    10.805953    34.706981     9.210212
O     25.806763    36.951488    29.503064
Na    32.840550     0.232080    34.792262
O     29.953722     0.633670     1.218057
O     10.978943     0.227533    25.468899
Ca    17.104789    11.716646     5.121377
O      5.458337     6.057318    30.694375
Si    38.642792    41.910314     6.558961
Na    25.830481    29.058557    40.538788
Si    25.594510    26.225602    23.640604
Si    10.656582    35.511735    25.907765
O     38.676985    36.192151    31.122431
O     39.194224     8.272071     1.492057
Si    31.548572    38.097799    42.209302
Na    17.634438     7.232050    25.236531
Si    34.368390     9.465757    32.493286
Na    44.179250    42.613372    16.179562
O     30.464983    43.233481    12.970449
O     15.465707    28.214071    18.698206
Si    20.423749    10.035377    19.105460
Si    41.885720    31.408989    11.114453
O      5.785840    17.463194    43.565424
Ca    23.005761    14.412418    17.332399
O     16.188403     7.647521    33.180129
O     19.916587    36.825873    43.426522
O     14.435521    39.696484     0.064284
O     15.099458    26.277555     5.829408
O      7.106808    23.179143    20.752295
O     42.845047     0.086946    44.547607
O     17.315176    38.648669    31.498249
Si    13.123218    15.626097     8.090347
P     21.162218    39.408018    15.147733
O     23.212928    38.851086    22.209301
O      6.544045    24.287227    41.595712
Si    25.525083    35.562270    22.099795
O     45.824056    36.002664    30.546986
Si    25.276210     8.549329    14.999616
O     33.318298    37.217004    22.868772
Si    24.087426    11.970595    43.775494
Si    40.752764    29.660933    20.064056
O      0.985159    11.552923    32.598508
Na    13.173056     8.885961    11.977983
O     39.572873    14.083912    38.257582
Ca    43.116666    20.054794    36.419881
Ca    38.799397     9.399688    13.459893
O      9.285041    12.608998    46.636216
O     25.825296    26.381670    43.291892
O     39.726010    30.066917    26.397054
O     36.369967    46.029845     5.227716
O      7.460065     3.692130    20.387259
O     31.955839    31.202057    35.535055
Ca    10.383142    17.267161    36.758003
Si    17.474669     4.417877    34.924746
O     30.411242     9.962112     5.484880
O     10.084348    34.031761    39.893683
O     20.851471    10.008270    17.553552
Na    39.573589    24.202562    30.260710
O     13.147310    12.103193     6.831287
O     28.824836     0.091988    18.160955
O     11.577325    38.574936    19.306352
O     32.155652    28.749495     9.197839
Na    43.800955    40.631549    25.444624
O     46.197537    10.859068    25.080640
O      0.885846    38.579866    23.509870
O     42.587135    44.673425     3.962800
O     21.388517    39.924150    11.161140
O      4.611650    41.603759    15.289537
Na     4.793994    41.481995    12.185327
Na    22.974336    24.138966    34.035276
O     25.184954    38.772056    14.731598
O     20.794321    35.368823     0.323512
O     40.372882    41.140714    46.579562
Na    30.609325    27.649587    29.843352
O      4.235123    16.671242    24.977709
Ca    26.075376    11.440958     1.567941
Ca     2.637683    38.560052    30.975059
O     38.859465    18.235744    44.801223
O      4.543733    41.789663     0.227204
Si     6.129114     5.787534    43.378866
Si     4.507869    42.211567    21.315068
O     12.360455    17.274718    18.034276
O     22.046642    22.363804     0.196391
O      7.352365    44.984273    19.697139
Na     1.080032    24.070813    10.022453
Na    46.513165    12.702976     2.037785
O     39.074586    40.769800    16.019210
O     12.153018    30.117638    35.034992
Si     3.369955    39.377086     2.598718
O      5.957602    21.041289    28.584744
Si    42.536587    27.457739    39.764364
Na     1.916485    42.925638    44.023115
O      7.820437    10.873860     5.853143
Si    18.335280    11.267321    35.158162
Si    14.774900    36.104329    30.943590
O     10.831196    29.427402    44.660873
Na    11.171291    26.906466    11.951008
O     22.809973    14.674064    23.626787
O      7.074793    40.037620    34.391606
O     12.228939    18.292885     2.763427
O     18.293922    13.916713     6.756275
O     28.608906    26.073589     5.906083
Na     5.511656    39.689816     6.049197
O     43.764765    25.999911    45.923243
O     15.805187     7.122322    30.624776
O     19.453455    18.344804     0.579809
O     25.471194    29.341186    11.987914
Si    46.258301    26.000751    39.240365
Na    23.491832    32.882928     8.024794
O     18.302689     2.790727    31.404609
O     21.354861    37.940131    14.979519
Si    40.412666    44.374083    16.270106
O      7.649412    17.952886    20.706475
O     33.649565     5.760707    38.393776
Ca    26.474455     1.459237    17.476733
O     37.732265    34.444037    39.107643
O      9.390831     2.703728    43.210813
Ca    44.410723    44.221316    17.979101
Na    42.390079    45.187223    35.904597
Si    32.801616    44.564861    28.530401
Na    38.953407     9.420164    22.900795
Si     7.123106    32.564476    20.865173
O     19.105831    35.966675    11.894283
O     17.157122    28.595088    30.042663
O     40.445401    35.380758    36.057169
O     18.444921    42.487154    45.243360
O     35.162672    36.598363    11.161469
Si     7.183963     5.401068     0.989019
Ca    35.924593    44.632606     3.187385
Na     0.394257    34.898928    41.601079
Na    43.085221    44.067858    30.590509
Na    40.973125    20.484580    45.337070
O      5.852159     6.520091    24.406977
Na     7.245574    21.681003    14.719565
O     18.834055     2.826221    41.845265
O     29.351573    39.085116     8.813872
O     44.514269     3.282332    31.587128
Ca     3.251555     0.992281    13.085894
Na     8.080625    34.907181    40.897383
O     23.161717    42.762628    21.344413
O     10.560566    35.320161     6.938127
Si    18.593346    14.074321    22.849372
Ca    10.547218    27.347605     4.067219
Na    39.759739     7.137382    18.392311
Na    22.713751    16.943495    14.937188
Si    24.757788    41.286673    35.568085
O     41.627423    20.808364     3.488559
O     40.883649     9.662791     2.613409
O     12.897171    29.287731    33.651324
O     41.267171    10.303274    28.539608
Na     7.439984     9.260789    11.494344
P     11.303447    28.932599    43.337147
Si    32.726081    30.362371    43.988321
O      1.173406    41.122697    13.370330
Si    14.677519    12.758107     6.121284
O      5.674431    31.862416    44.734385
Na    36.689401    37.431897    29.359381
Ca    19.807951    40.321270     9.093082
Na    27.827959    31.903737    38.549834
Na    35.962888    43.822497    35.054325
Si    23.087321    45.404893    17.805525
O     23.248384     5.222204    13.413160
Si    22.143448    12.485521    15.506326
O     36.874869    15.834651    36.768676
Ca    22.008305    44.284054    20.014793
Ca    41.880657    22.394572    11.138816
Si     0.187422     0.775380    46.443103
O     42.347307    15.196801    25.045261
Ca    39.435612     8.247128    32.744313
O     21.153886    12.808444    29.072318
Ca     0.812884    18.300247    30.852763
O     35.562064    32.212745    14.380674
Ca     3.891266    42.024444    21.553649
Si    15.467357    43.510844     2.271416
O     35.740957    10.296771    32.625868
O     45.700154    35.058100    43.473374
Na    16.192490    25.107222    31.605492
O      9.448752    26.936730     2.535087
O     44.732740     0.097693    42.833430
Si    23.173114     5.176682    11.805565
O     37.364482     7.603952    25.041781
Si     8.087985    23.724311    46.381834
O     19.742439    26.429595     6.442540
O     24.389852     7.213227    14.853673
O     36.462114     1.556196     6.523393
O     45.649670    46.526133    35.141641
Si    22.517671    44.864629    30.516048
O     29.019368    10.405436    30.749077
O     36.554465    17.404236    14.437287
Si     8.010697    26.420770    26.770579
O     31.630488    14.698266    37.873674
O      7.838293    15.745751     5.759571
O     40.745298    15.066872    31.316737
O     21.493778    18.323501     9.217918
Na     3.936587    12.533204    19.848448
Na    10.592139     2.232098    45.195098
O     44.345283    28.657267    19.966866
Si     3.112726    27.799590     6.836013
Si    18.349734    42.805331    23.239056
Na    41.338366    39.845647    16.825013
Si    21.906213    12.133097     2.112589
Si    17.066006    44.822391    46.554402
O     46.425092    19.126406    41.542142
O     10.080585    34.137104    31.096376
O     33.537141    32.166693    33.295579
O     44.167190     0.598134     3.515149
Na    28.091945    20.397030    18.799958
Na    40.981969    25.542871    42.397203
Si     5.563032    42.877803    15.036977
Na     5.909241    12.725320     6.353020
O     13.455729    43.347569    21.270454
O     30.759403    34.662896    41.190825
O     44.473005    42.009646    34.538609
Na    30.306872    36.115897    43.759627
O     14.703603    31.177425    33.732490
O      0.565613    43.878341    21.356273
O     45.793595    22.388373     5.540744
O     35.350156    41.496938    14.585406
Si    19.445862     1.946150    23.102228
Ca     8.282922     4.916182    29.121673
O     18.850268     4.718930    40.044807
Ca    12.365910    23.379887     4.194558
Na    34.363891    46.612043     3.739882
Na     7.100973     4.607612    10.343497
O     13.975153    34.909112    35.923875
O     16.663847    44.929221    44.999103
O      8.544150     0.486798    23.543104
O     26.988743    16.779939    13.364823
Na    11.732265    11.145910    31.334765
Si     2.590650     8.167373     2.496487
O      7.802798    36.930083    11.779347
O     12.627290    32.125467    39.461112
P     18.429372    37.895025    17.670149
O     25.029579    34.101901    21.637306
Na     9.608058    14.375535    29.599218
O     16.806152     5.880025    35.010235
Si    38.601057    13.812912    21.444695
Na    34.668597    41.436297    29.747969
Na    24.935788    39.315702    33.911833
Ca    42.168165    16.274270    20.663877
O     40.510985    15.821557    23.264651
O     29.724187    37.017898     6.928321
Na    14.210443    30.942689    30.487356
Na    31.214629    36.770536     0.281712
Na    19.041081    31.598456    14.123685
O      1.463864    12.123139     6.358332
O     35.242312    26.135227    30.857552
O     46.203185    21.898879    35.169096
Na     1.581443    10.897928    34.834148
P     43.423931    23.580581    24.871547
O     15.820334    29.952389    31.004367
O     35.852909    12.599518    14.389760
O     43.348907    33.872025    43.232567
Ca    43.120622    12.474751    33.789839
O     25.655881    27.052664    39.664688
O     33.694660    10.380614    15.134886
Si    40.528273    34.890998    41.421342
Si    38.817103    45.639325    39.384636
Si    16.920714     4.099081     5.518725
Ca    14.707575    29.721015    18.318910
Si    10.876485    17.187246    17.134897
O     28.151695    11.643907    28.614960
O     42.050102     2.206349    26.215194
O     44.545974    33.064975    16.936348
O     27.489903     6.173424    35.399150
O      2.125413    17.116421    44.521273
Ca    20.908566    24.307985    28.587659
O     40.647953    46.435114    34.029500
O     43.885660    45.773428    12.879752
O     25.270597    42.759434    35.968214
Si     8.394218    19.341130    21.038351
Si    39.804458     2.033177     8.488048
Si    35.238781    41.202984    13.006392
Si    18.448525    34.504219    12.040130
Si    11.036769    35.690121    43.493013
Ca     5.287027     5.835923    45.092669
P     20.808187    25.580711     6.862669
Ca    21.343871    12.745770    36.430695
O     26.725887    45.576301     0.481414
P      7.042957     4.134267    31.529758
O     16.485734     3.396081    34.169734
Na    42.107491     5.525738    11.805843
O     30.029171    29.909316    30.211302
O     46.391277     8.651782    10.019814
O     22.614284    23.137963    24.877570
Si    31.917935     6.535736     9.349010
Na     9.797516    39.911421    36.861556
Ca    40.350473    24.330579     7.652556
Si    10.627163    25.935997     2.984511
Si    31.324865    20.444071    38.941456
Na    15.427167     5.024116    27.930480
Ca    14.643391    36.369915    33.189455
Ca    46.703231     0.379524    44.225248
O     25.234096    21.945958    32.361995
Na    14.159961    29.878095    15.506721
O      4.347949    41.902176    41.948168
Na    41.697735    22.050857    31.286107
O     21.373792    37.510579     1.697037
Na    31.918873    15.032287    44.445065
O     22.857602    11.004940     1.468989
O     24.437125     7.768716    38.412014
P     24.806884    27.756655     1.020978
O     41.732105    32.388004    12.383323
Si    36.195225    20.524814    40.153631
O     38.804136    12.890064    22.748233
Si    35.776329    29.683562    25.888978
Ca     2.949689    27.270844    20.706625
O     39.275306     2.924924    19.835407
O     12.158162    36.426636    40.325540
Si    25.823764    23.419087    32.089447
O     28.097550    25.841733    38.765711
Ca    10.390378    27.323806    45.427237
O     25.319245    19.133305    30.448499
Si    11.498744    34.130914    35.288754
Si    34.301668     1.503501    26.656113
Na     6.469210    25.583569    46.560695
O     34.189080    33.645120    15.473377
O     22.191432    36.185966    43.742251
Na     4.873951     6.416499    35.225662
Na    17.661185    28.558347    35.552664
O     42.237608    34.324244    13.520899
Ca     7.841576    38.564300    33.667182
O      5.738574    40.102446     8.202417
O     35.368584     0.449569    44.438357
O     35.033409    20.785969    28.758516
O     20.633702    20.575594    29.262818
Si     7.269460    40.888634    13.246471
O     17.655072     0.196526     7.674510
O      5.195921    10.422099    19.191762
O     22.037288    28.052555    43.526045
O     15.368612    31.279160    39.262346
Si    12.852609    41.461206     8.773102
Si    38.566668    14.513271     6.728389
O      0.400291    39.561679    27.392148
O     11.816810     1.879299    29.429482
O     21.251473    36.057302    40.792829
Si    33.941715    26.513704    35.468763
O     33.672567    20.224165    30.946754
O      8.480246    22.667593    45.232234
O     13.921194    32.539631    45.084541
O     42.756256    23.078875     8.808757
Na    41.961033    11.179639    25.557733
Ca    34.416915    38.561988    21.749862
O      5.000251    21.622874    19.312804
Si    22.948655    43.858873    26.737727
O      2.811337    15.045216    32.958103
O     32.030507    25.913463    24.073164
Si    44.885307     4.817076     1.921126
O      8.416636    29.456662    40.152802
O     36.295345    45.977400    14.548768
Na    28.140252     0.409161    46.050642
O     18.999125    33.741704    13.346848
O      0.231953    19.066993     8.939535
Ca    37.477242    28.088147    16.916679
O     40.109405    25.320765     9.643212
P     17.706780    18.012952    15.854210
O     29.916144    14.546493    19.150180
O      5.227088    23.589997    27.827000
O     39.856194    46.072285    38.233578
Na    28.714454    26.234882    22.004710
Si     4.976870    46.724644    31.131754
Ca    22.879006    38.476395     3.746776
Na    45.131464    37.222434    29.688968
Na    29.605293     1.393683    28.872335
Si    11.891016    42.968776    21.253389
Na    38.046157    43.876839     9.152848
O     16.266682    44.166617     1.029653
Ca     9.365845    23.700173     9.021072
O      7.375903     3.803588     1.046617
Na    42.395188    13.441688    31.705789
O     20.061027    11.541159    19.544950
Na    36.975423     5.676402    43.164955
O      1.672513     1.622492    46.616938
Ca    33.045681     2.018391    42.909962
O     31.544726    37.494833    21.099413
O     20.042834     5.812091    28.032442
Si    39.564823     1.882527    21.027753
Si    45.990987    19.607907    24.065255
Si    38.028627    14.890416    37.376429
O      9.674068    11.646077     7.519262
O      4.842512     6.066621    39.508059
O     25.256587    17.182054    13.611447
Si    17.031991    14.705261     7.370947
O      7.686114    24.369816    44.604014
O     34.656772    21.450610    16.933111
O      3.507834    18.595946    15.845186
Na    46.414468    33.009431    12.877740
O     24.994204    32.174826    30.430513
Si    25.093415    20.323000     6.161714
O     20.373894     0.630539    23.107340
O     25.725795    23.763921    30.519864
Si    29.774849    19.095844    35.036263
Na    46.487624    42.385247    34.511562
Na    14.228592    17.387443     7.343526
Si    40.171633    42.678313     9.921394
O     20.874235    15.730511    43.146946
O     41.064377    35.567640    40.062354
Na    32.353651    37.318221    45.335694
Ca    39.663725    12.987642    16.090539
Si    45.675173    14.887015    21.569131
Si    46.313891     6.621946    20.962884
O     42.816022    13.542619    35.792624
O      0.419941    28.315092     9.332897
O     23.650676    44.611397    44.581366
O     39.285199    14.729938    33.524796
O     45.610867    31.414288    22.994674
Si     7.183940    28.099211     5.596668
Na     0.418105    42.380891    14.463905
O     25.583752     6.582335    31.909005
O     13.618506    40.391165     7.845463
Na    33.768286     5.213529    10.947186
O     18.267981     9.677297    34.914456
O     10.429276    35.611543    31.715567
O      9.656997    21.198786     8.978697
Na     0.681018    36.823284     3.548678
Ca    38.924699    12.252975    43.274077
O      1.351648    40.781558    41.392768
Ca    16.061345     3.135514    28.415002
Si     9.625474    45.631771    10.228034
O      2.458278    45.428400    13.000673
Si    30.404080     4.229597    41.951124
O     13.253084    34.269280     0.122762
O     46.735887    33.870966    29.015092
O     12.658945    28.336771    43.503620
O      8.278850     4.733170    23.741996
Si    43.634242    37.617155    21.857808
O     17.419083    26.286162    14.246557
O     30.497654    16.787162    29.825070
O      3.501171    43.021623    39.822815
O     29.591427    30.055446    19.907001
O     27.231430     4.533625    32.180476
Ca    35.308313    34.688887     6.797762
O     18.721950    21.662286    38.958581
O     23.996962    46.669527    20.717257
Na    25.851685    16.841301    23.998481
Na     3.612299     7.169941    45.798160
O     22.700495    18.746967    16.370408
O      6.463167    38.241644    13.656727
Ca    19.875420    42.629882    11.843309
O     12.439812    30.391094    16.005030
O     41.035941     2.484699     9.421684
O     10.487858    17.095281    15.575214
O      3.651948    32.638921     3.432972
O     14.236353    12.479034     4.598264
Si     8.960605     1.160891    43.374091
Na    22.451688    40.293303    23.975960
Na    30.155836    46.297700     7.048834
P     12.903996    19.369638     1.985610
Na    26.415734    24.928420    14.261932
O     39.813969    15.022997    25.659844
O      0.788959    36.251771    32.539115
O     22.888893    25.313078    34.931889
O      2.222778    27.795448    46.458834
Ca    29.087606     7.709478     6.303464
O     37.209240     8.046389    43.151033
Na    25.442861    15.760834    14.815213
Na     0.003116    14.148638     6.670198
O     17.860074    25.126669    34.057438
O     46.258469    27.708696    18.456642
O     13.418133    23.729038    41.600872
Ca    34.961097    12.473326    44.569064
O      8.357575    19.083606    22.627199
O      9.986705    36.665829    42.759897
O     40.455474    30.784422    10.718965
O     40.031203    41.086304    10.116046
O      9.833103    42.104438    25.681691
O      8.000345    31.793946    14.328155
O     31.575455     6.292792    11.108467
O     18.949419    21.217365    11.313554
Na    16.030192    18.196678    22.148951
O     36.902178    38.230473    13.490623
O     25.905381     9.781980     5.947526
O     36.066658    22.368444    43.920348
O     25.006359    15.969863    18.536620
O     40.219716     0.734504     7.631830
O     44.981528    17.911846    33.296317
O     41.035822    16.170489     5.617439
O     20.262025     3.166072    23.763869
Ca    21.087069     7.575632    16.581770
O     40.549787    22.674810     4.119838
Si     7.731034    11.843875     7.497234
O      4.840885     1.936977    22.063849
Si    14.831480    44.563782    13.605213
Ca    11.708436    40.351669    27.545561
O     45.761645    46.296421    40.816913
O     45.153374    34.064762    23.939662
O     23.924743    41.263461    20.626379
O     40.855368    12.468366    27.071792
O     26.592195    36.888379    29.568781
O      9.429019    24.549943    46.716587
Ca     9.402941    23.286001    28.609692
O      5.612475    31.665224    20.221012
O     17.294272     8.418594     7.588568
O     26.130876    19.166615     5.739164
O     33.482903    28.721413    39.388587
O     30.944519     3.800665    40.496462
Ca    14.441878    22.426296     2.394186
O      4.305548    39.862788     1.328192
Na    11.141119    39.600557     3.519579
Si    40.868718    11.863004    28.563589
Si    15.315826    17.746212    32.069825
O      6.073912    28.379310     6.728694
Na    10.159265    19.700625    16.770451
O     24.901659     7.562044    45.154388
O     26.972024    33.046492    19.227039
O     14.404604    44.589274     2.818814
O     23.757794    44.957723    31.538559
O     43.102123     7.862385    14.920499
Na    33.443776    34.910924    23.129299
O     36.228635    30.803350    26.953682
Si    26.246446    18.022387    12.659544
Na    26.419473    35.619641    20.656363
O      4.438830     1.332743    37.001298
Ca     8.496344    36.941153     6.166189
Ca     0.498208     1.500777    22.624259
Si    22.901549    46.090277    21.745187
O     32.787361    27.335246    22.006102
Na    16.343127     9.489937    17.520589
O     41.732232     6.751170    29.006132
Si    44.858873    35.166693    25.293979
O      1.402553    35.844681    24.421998
Ca    12.352812    23.612566     0.557785
O     43.818031     9.022465    12.689159
O     30.120748    17.853901    34.071881
Na    43.993509    27.191722    27.611145
Na    16.811028    18.078291     3.651011
Si    14.871335    23.594933    40.920930
O     33.592821    43.180556    28.753550
O     22.106665    14.748294    21.467483
O      5.848764    18.996277    29.382483
Ca    35.617917    16.341637    12.865951
O     23.285959    20.876436    46.620821
O     23.126169    10.724279    44.114291
Na    31.412791    32.732510    40.104626
Si     6.075976    22.247061    10.611759
O     23.551873    12.834095    21.569976
O     23.184264    17.291502    19.499703
Na     4.346253     3.944001    45.102575
O      8.242067    33.242448     9.649144
O     34.057962    14.344508    43.427629
O     15.167755    25.615057     3.242795
O     17.873372     2.157878    17.648148
O      0.444957    22.260125    36.506110
Ca    45.248038     7.208234     8.574658
O     24.064149    37.185936     4.177184
Na    27.879998    27.736556    24.284181
Na     9.681129     7.395388    20.356781
Ca    23.556903     1.767949    17.276059
Na    42.048590    23.692493     0.087646
Si    17.637742    33.639739    41.508605
Na    20.236901    11.932585    30.853820
O     27.060214    16.826093    26.147090
Ca     5.159463    14.536191    32.393792
P     39.550412    24.321950    39.411635
O      1.356439     8.567546    23.924900
Si    36.700650     0.834164     5.104284
Na     2.023081    27.320123    35.453817
O      9.636627    13.188295    22.029982
O     24.795382    22.639324    26.242581
O     24.886061    24.490049    32.841679
O      8.420379    44.821314     9.027556
Si     6.315261    44.138158    18.802374
O      8.788960     9.230437    13.993262
Si    24.913563    29.599350    13.476033
Ca    39.641079     8.374400    42.236654
O     15.258591    20.245495    12.919627
Si    20.171661    36.505058    39.340164
Si    17.601020    46.141317    33.567143
O     39.057028     0.831674    13.514995
O     33.020051    13.223976    43.572222
Si     0.924408    15.271457     9.250877
Ca     2.415962    38.689501     0.590801
O      7.486742     1.814210    43.810217
Na    28.591799    32.613236     3.345998
Na    22.428100     4.215176     8.606422
Si    29.314419    34.947203    41.841433
Ca    15.444394    46.149625    37.799789
Na     5.294966    39.159779    23.949021
Na    18.379571    45.010668     3.803532
Si     4.236067    10.565910    20.476323
Si     5.893813     6.721221    32.413656
O     17.607976    44.131057    13.944182
O      7.619160    22.997618     0.973342
Si    22.173532    10.550192    26.771861
O     20.744955    23.794387    34.688836
Na    43.084943    15.647595     4.266545
O     10.608120    15.423699    26.890387
O     17.006159     6.699463    22.284600
O     43.561006    27.241999    32.724292
O     23.545989     3.512546    38.590790
O     12.563486    42.636345    10.021228
O     10.351163    10.749518     0.407541
O     23.194692     7.606354    23.217251
Si    23.117367    19.050918    26.571206
O     32.731391    19.680644    39.117417
O     43.373926    35.980592    11.852536
Si    18.841274    39.008925    31.863404
Si    32.648675    39.189413     1.877736
Ca    33.107197    16.494820    42.898520
O     41.690797     0.686523    25.016048
Ca    36.533756    13.020262    22.145922
O     23.242438     4.419171     6.612168
Ca    14.295438    27.885468    35.133368
O      1.977618    36.442289    24.505689
O      9.768127    21.940395    14.685798
O     27.189090     1.202298     1.387969
Na    39.827285    34.237741    39.578717
O     12.649406    15.353925     9.715212
Ca     8.015088    32.031091    40.369258
Na     6.203560    36.657102    13.634230
Ca     1.366542    22.168841     6.692908
O     20.761279    18.821720    18.208308
Si     1.062164     4.211224    33.782228
Si    29.512730    16.259483    30.984199
O     45.518597    13.953696    28.003313
O     26.336892    21.542813    29.818883
Ca    34.488404    42.379841    10.188187
O     37.632413    30.177744    34.435783
O     27.852879     9.719427    17.821509
Na    45.260463     8.422701    16.061840
Si    30.503814    38.494794     7.856814
O     23.283394    14.887047    19.879295
O     39.004258    36.089538     9.800087
Na    37.590022    15.118100    35.070920
O     46.323264    27.425080    21.096954
Ca    43.647715    25.498919    31.898192
Na    45.089850     3.086908    29.460699
Si    19.467142     2.303443    17.472630
Si    14.001113    11.288130    15.081842
Na     0.378397    10.790227    30.108035
O     46.048375     5.827801     1.454425
O     21.472795    30.267181    40.919746
Ca    10.062334     9.088711    45.231927
Si    37.507954    36.453446    30.046702
O     21.985235    42.613599    27.074202
Na    28.204255    12.982309    18.280070
O     19.971009     0.800375    31.355252
O      0.923756     3.969766    35.367990
O     42.602546    24.958061    35.650355
O     17.248354    34.413026    24.430078
O     11.207395    10.233328     8.515013
Si    17.325109    21.959488     8.860915
O     39.136375    17.975635    14.049705
O      0.634243    43.858108    38.528279
O     38.451185     6.895275    19.077525
Na    44.248864    17.772345     7.023669
O     21.571077    16.512944    17.261461
O     10.558540    38.429667    38.763753
Ca    15.399972     2.691816     6.552905
Ca    41.331681    42.047369    42.121825
Si     3.464021    20.897094    19.129147
O      9.552920    29.420194     1.038121
Na    38.210982     7.433633    31.135516
O     42.012881    17.274331     6.009957
Na    45.631701     5.283848    43.588228
O     45.418238    44.017334    32.996396
Si    27.174203    16.221891    27.635057
O      2.235226     2.806680     1.300072
Si    36.430943     6.292538    25.070033
Si     3.157604     2.469604     0.024260
O     31.734980    29.821946    32.277449
O     13.779840     4.061281    11.769915
O     40.911953    43.076495    23.663950
Na    31.773101     7.863578     5.615684
Ca    46.714580    20.021646    25.488493
Na    36.761259    23.351895    33.978439
O     24.092761    15.394188    25.193505
O     40.043824    22.387292    13.481158
O     37.964415    28.665446    36.583104
O      7.641324     8.358220     4.571045
O     45.999492    44.694740    14.073229
O     13.031804     2.017934    27.336895
O     11.477826    16.312919    15.924095
Si     1.980588    41.348412    33.184502
O     28.768293    23.545701    44.530944
O     41.963141    12.623260    29.467109
O      0.984448    17.291704    40.169658
O     27.371394    18.935875    19.155566
Na    20.595565    35.289474    41.907704
O     19.245908    44.072616    22.811315
Na    14.195451    21.795514    35.709166
O     36.004284     6.259156    38.770476
O     14.440655    45.774935    14.591349
Si     7.616932    32.014581    15.876191
Na     6.513474    38.460749    35.711561
O      4.370063    11.821601    11.627557
O     35.754834     1.484741     3.975443
O     21.645795    10.577229    25.251051
O     26.730059    22.058517    45.357648
O     21.824322    19.220728    25.446873
Na     2.816627    15.571780     7.917895
Ca    25.251277    27.448183    35.573382
Na    33.199858    24.926022    39.066149
O     33.843536    41.786344    12.454048
Na    41.529893    36.189494    22.304190
O     41.833137    31.807516     6.564518
Si    43.744525    21.869904     9.200946
Na    41.356204    41.216227    18.284969
O     19.324598    36.652612    41.022590
Si    46.653340    32.777761    27.836029
Na    36.782158    20.387416    11.630044
O     28.815850     2.917490    20.372182
Na     3.949193    46.532623    17.990348
Na    36.723390    38.754791    32.821320
Si     9.745175    35.144605     5.561022
Si    17.640608    18.431009     6.131496
O     24.504138    18.566887    25.911903
Si    43.207600    27.076760     0.216005
Na    15.679580    44.990596    18.378115
Si    41.763947     6.730108    41.110981
O      1.594915    14.301060     7.841608
Na    30.106739    12.990797    28.448940
Ca     0.573755     9.698796    21.824818
Ca    16.667969    27.469525    16.496260
O      7.391351    36.176995    41.603039
Si     7.658077     7.758886    39.111035
O     13.405484    27.967279    17.103450
Si    19.917020    30.488541    40.569512
O     39.656704    29.957374    21.205491
Na     4.192835    33.464522    19.632498
O     24.107727    24.732165    26.984640
O     18.833247    33.697138    10.701209
Na    46.388986    26.212898     6.660468
O     26.004434    25.590738    40.393839
O     18.754363    10.751241    36.661128
O     30.077418     8.155802    17.343627
Ca    17.127493     4.410119     3.172297
Na     3.775356    11.281843     9.799584
O     11.847931     1.373399    11.763311
O     24.481212    43.583529    27.147062
Si    18.375413    40.924636    45.625206
O     16.388649     3.796210    23.552807
O     37.461201    23.399331     0.456210
Ca    22.843572     0.301991    30.883654
P     24.090992    16.126556    19.701802
Na    18.771532    41.051660     1.167888
O      7.833998    26.523182    41.863205
O      3.611725    11.601492    38.678440
Ca    28.387715    13.893255     8.711508
O      6.739838     2.595754    37.463591
Si    44.984599    42.491151    32.722863
O      1.671469    18.309568    10.835701
O     41.432712    15.558149    36.674106
Na    28.269502    35.701495    42.683486
O     39.239479    24.900403    40.749100
O     32.357918    20.102984    17.168701
O     27.273069    30.750476     5.517942
O      7.096697     1.476562    21.704921
O     45.192600    33.658112    41.340613
Na    33.360801    26.407651    27.687539
O     36.564514    39.117112    22.311729
O     19.323319    14.127387    24.283395
O     22.071168    37.394982    10.623845
Na    32.776847    13.211703    36.650876
O     46.524236    35.310275    40.167380
Na    40.839435    24.617787    37.509270
Na     9.508171     4.146254     6.139723
Si    28.094231    10.118201    19.362557
Na    29.689449    43.143094    15.053789
O     12.095299    13.997221    32.133955
O     18.990493    30.677266    11.441330
Na    26.615469    23.229226    17.487770
Na    16.674311    43.525444    16.998108
O     28.902960    14.833100    36.793586
Ca    36.554525    14.293183    15.781476
O     41.297565    28.156163    20.240014
O     24.531249    10.323973    37.752550
O     45.921994    12.820682    33.951355
Si    11.053753     2.297061     7.183422
Si    38.493873    18.636765    46.317014
Na    28.070000    44.157608    17.976168
O      2.087944     8.547519    32.847417
O     37.459068    25.935665    46.415821
O     24.878161    41.098588    33.973647
O      9.218800    14.724770     3.783891
O     15.740782     1.341627     6.264809
Na    39.067676    45.540709    45.599823
O     44.650626    14.709127    25.601670
Si    14.700957    18.784314    12.537405
O      1.265512    18.624710    42.563510
O     28.736818    34.724039    38.629379
O     40.867645    35.278480     0.952770
Si     2.065916    18.765763    15.149388
O     21.840918    39.809655    16.411914
O     44.077477     8.277630    27.323642
Na     4.954787     5.586661     4.425311
O     35.726638    44.083539    15.896685
O     16.066056    10.577678     3.431862
Ca     9.594343    38.154527    31.923267
O     25.362372    26.754799     1.973773
Na    26.448439    19.918172    31.618434
O     26.254815    34.745190    30.684959
O     21.455785    15.398263    29.135550
O     17.655102    40.153844    44.409011
Si     8.041986    41.634541    21.978200
Na    27.964397    18.238898    34.440386
O     27.259732    19.268442    12.546858
O     38.569920    23.240812    39.111841
Na    16.065342    19.649997    14.003279
Na     7.274393    18.830757    19.300553
Ca    19.799942    11.616620    23.635930
O     11.273357    37.984103    38.539419
O     34.560753    45.602096    35.326821
O     35.187572     3.986491    29.508307
Na    36.615443    13.013644    18.696175
O      6.567591     7.788855    13.839070
Na    19.261016     8.714126    36.911472
P     21.273825    19.358078     8.262099
O     24.083908    28.661681    41.989537
Si    26.050451    36.660186    31.067628
Si    22.331285    35.609546    42.245494
Na    45.329908    30.240948    10.620968
O     10.753097    14.875174    36.438541
Na    37.100372    38.946762    27.595834
O     19.859737    40.357121    45.883682
Si    25.910338     5.077709    31.438325
Ca    29.296167    18.920667    29.794041
O     20.645806    32.095715    26.091385
O     15.746547    16.605691    31.018259
O     15.924343    35.927511    34.941119
Si    34.315092    35.074115    16.204263
Si    10.530774    37.086078    39.650374
Na     9.477973     2.543818    10.233178
O     14.209046     2.103598    29.490260
O     33.964108    43.455261    28.627875
O      8.427118    14.865656    28.186685
Si    21.346677    11.234545    30.155945
Ca    42.949681    21.186142    14.405756
Ca    34.121355    37.453514     2.510915
O     19.722038    37.654146     6.428030
Na    33.504852     3.421565    27.994886
O      0.034172    28.722794    11.903523
O     29.968192    46.094765    27.446151
O      4.492637    22.350912    29.669204
O     13.424524    15.806081    19.472598
Ca    41.160678     7.563605     1.399894
Si    39.881600    16.276216    39.907954
Na     4.194307     1.843192    16.482793
Na     3.727418     7.136813     4.764208
Ca    34.775398    45.169869    20.879203
Na    22.084043    12.689173    22.778223
O     17.985406    36.899360     8.237825
O     22.635565    23.317657    36.512129
O     44.150436     7.344049    43.576518
Ca     8.503868    30.408176     2.693889
O     43.630936    12.627958    26.762074
Na    20.117933     0.473497    33.181797
O      8.011058    25.175753    27.791379
O     35.888218    36.271317    38.786370
O      3.780436     6.837426    43.026942
O     29.910648    28.316627     6.366042
Na    12.067613    35.873481     5.177005
O     26.720120     8.032882     4.771382
O     24.265276    20.572300    11.286417
O     12.072024    26.268433    29.606017
O      8.812026    10.872203     2.807300
O      6.274928    41.923054    21.646634
Si    17.375780     8.831221     9.142658
Si    40.537281     5.336250    34.252425
Si     1.240830    34.769030    39.851866
O     28.504848    34.069300     5.517285
Na    39.837843     9.445537    20.983777
O      4.522516    40.880562    22.220779
O     11.708957    32.096846    46.523790
Si    16.866686    23.979026    34.453156
O      7.903167    19.139051    27.677287
O     40.983764    17.392521    25.339678
O      4.095908    46.746670    32.479166
O     43.944590    27.052202    30.066050
O     19.540149    29.422090    12.359669
Na    22.668930     4.568139    31.838094
Ca     0.363578    14.521756    20.045035
O      6.483709     5.511500    41.832849
Na    44.075420    34.521275    45.074341
Ca    34.126508    23.445688    17.296758
O     18.599319    32.662966    25.909874
Na    14.643339    14.315780    28.878365
O     25.877492     8.324100     0.649855
O     40.982258     4.421988    33.004138
Si     3.795290     0.739171    22.317010
Si    36.538398     5.171834    46.627834
O     45.950442     1.838107    45.768037
Si     0.849305    27.859456    10.816184
Si    43.550671     5.599522     5.476525
O     40.107712    39.010296    16.878623
O     18.996077    18.588389    29.818489
O     42.915612    30.199106    11.374464
O     14.263243    24.964299    30.165199
O     15.339094    17.076016    33.533518
O      7.024327    42.017050     2.690694
O     20.139321    21.663333     4.296076
Si    11.071732    11.662987    26.714559
O     19.717438    26.070524    32.125904
O     41.945574     8.367287    11.820657
O      8.629056    27.488907    46.576932
O     32.451768    21.192314    28.896396
Si     6.868305    40.256660    38.494668
Ca    16.293014    32.839551    30.150623
Si     2.951770    45.305168    14.528213
O     42.819162    37.008741    16.194546
Ca     4.590102    26.326017    13.934136
Si    26.258901    37.037882    36.656720
Si    31.216176    30.656279    31.001976
Si    36.788864    15.466437    41.096710
O     17.938690    22.402833    41.333365
O     39.526535    24.957656     0.872617
O     20.919519    18.716425    11.042134
O      9.808796    41.072981     2.382310
Si    20.286332    21.948784     7.046450
Na    28.117354    15.935657    10.552321
O     19.977807    19.203753    23.076875
Si    15.215145    42.513791    24.764835
O     40.688260    20.177384    14.237487
Na    32.485173    41.398128    27.953717
Ca    22.771304    32.771056    40.697398
Ca    26.760999    12.038161    44.788600
O      2.408481     7.003157    39.599833
Si    45.570091     3.775708    30.476309
O     45.946055    13.561905    20.695743
O     11.951000    32.798441    41.292652
Na    46.688691     7.700245    46.691877
Na    22.705275     4.715898    43.564432
O      8.171739     3.161667    31.529178
O     42.977648     2.224822    43.047372
O     25.840817    38.001468    31.933142
Na    29.734455    36.406442    21.124388
O     23.444199    43.913079    18.707385
Si    17.446743    26.426723    12.642943
O      0.594627    45.087080    42.536636
O      5.760040    34.116677     9.565271
P     23.500736    19.536397    12.036406
O     19.158749    14.253455    42.458991
Si     6.536481    22.348654    19.496462
O     44.561923     6.243598    38.330066
O     40.629664    28.610948    18.418966
O     21.433669    18.888496    43.097165
O     36.304915     9.212854    40.978513
O      7.549079    16.590877     3.834312
O     36.256468    37.169141    30.763406
Ca    26.511104    42.422500    22.780748
O      4.617673    11.928991    21.243452
Na    35.379601    40.381167     6.232227
O     10.698759    23.271713    37.068037
O      9.539755     2.411015    25.142118
O     43.001182    15.302715     2.759038
O     44.365144     6.786460     6.197576
O     19.366679    37.963699    32.969547
O     41.002179    38.497857    14.924579
O      5.712264    29.233024    44.658926
Na     1.289840    33.586091     3.847789
Si    41.319609    14.091702    36.019246
O     21.446332    21.535518     2.300642
O     35.177789     4.261799    31.918415
O      6.988927    37.366837    24.248537
O     17.548209     5.994842    27.182594
Si    29.501824     8.301364    15.847096
Na    19.785406    17.399494     8.003682
O     44.080600    15.098329    21.638289
O     21.960319    16.614144    24.186689
Si    21.597613    30.807600    25.927309
Si    41.531408    37.962828    16.347871
O      5.149507    12.729337    30.827506
O      7.562676    39.202857    39.494392
Na     6.510838    12.714112    28.641038
Si    21.227174    11.590592    11.067873
O     27.700612    21.867748    42.877296
O     12.627728    34.491443    40.407330
Ca    37.417222    29.671797    31.267188
O     18.174900    46.570640    32.125462
O     19.062277    35.242226    26.093214
Si    15.753606    28.357476    30.794849
O     26.471235    12.583531     8.831106
O      6.878431    23.614050    10.329793
Na    40.041919     9.748982    26.414109
Ca    43.377546    12.605335    37.372332
O     28.123424     5.745135     5.959683
O     21.578404    42.051586    23.873468
Si    11.538470    34.444622    31.706379
O      7.567676    40.158761    36.983990
O     16.846028    34.570910    12.180330
O     24.901867    24.584812    24.207481
Si    19.879592    37.980159    23.652740
O     34.612098    22.123388    13.162031
O     21.725799    14.869326    26.514555
Na    33.940387    20.739317    40.917769
Na    25.470566    37.657131    41.123245
Na    44.472219    46.714444    39.303395
O     15.509796    35.172502    29.855598
O     13.289218    10.748099    13.742562
Si    40.506563    27.560964    16.773876
Na    16.465383    37.154403     2.297543
O     26.685425    15.219540     8.515683
Si     4.447297    33.939189     3.951453
O     15.854755    13.731684     6.746116
O      3.461865    41.966328    33.311374
Ca     0.567494    43.240137    16.776155
O      5.880394    41.266169    39.487238
P      5.062449    11.235606    12.809636
Na    19.454011    38.529075    21.147665
P      9.452181    35.385855    46.336718
O     28.155605    34.715222    40.748072
O     33.418624    10.136456    31.379640
O      4.108014    35.170832     2.971635
O     15.551154    24.629954    33.791515
O      8.519240     3.932928    31.517445
O     40.124767    25.638174    30.164840
Na    24.501015     2.212409    39.311212
O     28.852880    33.848379    36.157611
O      1.555357     5.713403    32.863023
O     27.175088     9.253377    29.269682
O     34.257994    37.835730    36.450579
O      7.700580    45.113963    24.766925
O     27.220102    31.845612    29.280678
O     13.570737    40.673816    46.424623
Si    37.636023    18.121013    13.484100
O     40.124668    17.854993    40.109154
O     10.949919    44.721628    10.748694
O      9.409389    26.462466    25.974324
O     45.005958    17.623519    38.436167
O     28.624262    27.317419    19.918003
Si    43.250065     1.162592    25.964676
O     37.802755    24.450556    27.445522
O      0.750131     2.824187    33.026673
Ca     9.796020    10.705972    25.515025
O     32.058489    21.659633    12.879154
Si    30.358437    31.343069    35.678314
Na    27.262140    21.706130     1.347093
Na    24.904519    42.466897     3.625449
Si    40.820570     8.993232    10.325949
O     28.792830    32.985730    45.222815
O      1.406922     9.656582     7.085498
Na     5.514270    42.084050     9.778116
O     13.521212    29.639284    38.350650
O     10.816635    38.545031    28.619878
O     39.100078    20.080122    46.692960
O     18.372248    18.674806    14.696971
O     15.521787    41.003562    23.666534
O     45.633305     6.060660    40.777047
O     36.333509    20.693044    41.839249
O     40.793940    33.304510    41.353689
Na     0.146423     5.188188    31.867735
Si     2.458796    44.218668    18.355142
O     44.925364    41.345885    44.407100
Na    45.730644    34.387891    20.492772
O     33.568736     9.460002    33.890647
Si    39.910686    10.940534     2.726616
Si    28.631442     1.645058     7.366817
O     42.125030    26.292164    28.625254
Ca    43.039062    20.926135     7.437332
O     14.881120    12.595922    14.754175
Ca    31.382322     3.220733    28.314942
Na    39.650501    16.706449     3.487799
O     29.767016     6.580891    12.466608
O     13.415666    25.131352    27.686723
O     39.219747    38.801797    11.087762
O      8.786923    41.270565    23.358306
O     30.597164    39.393658     6.524361
O     43.014299    27.861630    38.280867
Si    27.425996    23.069452     3.933781
O      6.812417    26.302166    25.701861
O      1.149682     8.740315     2.063533
O     16.632156     9.168854    23.160642
Ca    13.183814    31.680739    33.380268
O     28.196704    30.232149    18.982493
O      5.113593    16.196053    32.450733
O     21.025858     8.997043    23.813184
O     21.434471    46.352422    21.136040
Ca    29.330248    29.799128    44.788929
O     36.518370     5.080766    23.914673
O     39.416687    11.962473    29.251931
O      1.074872    12.914062    21.933350
O     39.848176     1.046491    22.547586
Na     8.248698    27.368280     6.754609
Si    17.926531    34.124856    25.861557
O      6.923779    43.957464    17.322794
Si    13.004624    14.249972    20.011541
O      6.490626     5.377674    31.954599
P      8.320347    28.672989     0.660565
Na    21.626024    36.452932     4.520058
Na    38.430396    23.268887     3.786569
Na     0.702008     6.419719     1.985117
O     39.083449     5.951650    33.936586
O     29.901543    31.162021    37.211470
O      3.551450     4.899475    29.402960
Si    43.376168    27.938059    31.284349
O      3.971181     6.968401    32.178737
O      1.710964    44.841370    15.443304
O     40.499359    14.776812    39.523345
O     43.868429    19.834340    39.099110
O     19.492092    41.902255    23.953205
O     19.619459    13.668078    21.677127
Si     9.463829    14.308524    27.088079
O     20.417061    21.707177    41.041736
Na    44.359809    24.029557     0.009605
Si    44.925141    33.757768    42.925111
P      2.215447    13.402991     6.537378
O      7.453969    29.635512    46.690165
Si    27.316225    30.391059     3.949166
O     11.687745     3.699558     6.711029
O      3.044000    29.554722    19.653920
Na     9.240403    18.688442     5.730284
O     26.537178     8.505820    13.999533
O      4.598282     7.651490    26.501672
O      3.877895    35.591750    12.303359
Ca    18.852879    24.277076    36.604119
O     34.535024    45.218703    37.940014
Na     8.807904    24.103491    18.277934
Na    28.144322    13.108397    32.197501
O     44.217989     5.208299     3.698826
Na    36.775524    40.123257    19.348773
O     35.152896    37.908460    26.632703
O     24.135510    24.336202    14.969267
O      8.900984     7.142857    22.811844
O      1.106266    43.629965    19.000272
O     27.109321    14.613401    27.660547
O     43.317059     7.055850    25.122548
Ca    39.587611     2.829590    29.271362
O     33.355261    43.508832    36.244244
Si    14.854711     3.652857     1.395268
O     31.196237    45.537935    12.040910
Na    33.858098    38.049904    11.721374
Ca    18.515294     3.836892    24.335339
Si    24.331453    37.407150    14.705762
O      4.982242    13.793786    38.888937
O     28.289345     0.982060     5.940107
O     43.294583    35.284402    46.728541
O      3.451963    46.735966    15.071097
Ca    22.303405    45.736333     4.716574
O     36.211765    42.722685    12.428124
Si    33.293913    26.354017    23.177721
Na    19.864831    43.498587    27.390359
O     15.234333    24.658962    24.270055
Si     7.221829     9.244195    13.624463
Na    39.555458     9.659100     7.562619
Si    20.685489    14.120091    42.952325
O     13.861423    18.340415    31.718064
Si    14.238838    25.857123     4.535318
Na    36.022052    10.317101    35.002877
O      4.138681     8.466045    24.064985
O     12.219347    19.567132     0.677042
O     16.200402    38.867864    38.927918
Na    39.161948    32.854518    41.016579
Ca    19.001569    29.794566     6.589521
O      3.306460    17.406971    33.949963
O      0.841891    19.096034    45.586721
Na    43.511070    44.683973    14.813903
Si    41.545754    43.477266     4.668750
Si    46.464541    44.835408     1.889331
Na     5.145450     6.145077    14.873754
O     39.949614    31.621262     4.795065
O     45.508367    28.786027    42.677276
O      0.753106    46.481243    45.372064
O      6.166973    12.123200     7.757602
Ca    22.608144    10.989383    30.846662
O     24.928514    16.405164    20.902233
O     30.510734     1.225229    21.420119
Ca    40.721232     7.305111    14.925062
O     29.543437    17.772117    34.149530
O     16.251987    32.462432    46.396137
O     36.417831    14.086916    33.672599
O     40.556157    40.634003    24.497982
Ca    31.506046    37.644323    15.746507
O     31.784307     5.729661    45.241582
Si     1.086273    18.709479    40.925731
O     40.891969    16.130615     0.949053
O     34.966319    43.720338    14.745143
Na    15.602691    30.225104    28.745315
O     20.541955    35.371145     2.986392
O     23.148506    30.326280    44.261942
O     11.150324    37.032138    25.716209
O     34.455106    32.265555    35.797069
O      8.326973    43.741360     1.175100
Ca    12.224633    26.794772    21.572102
O     27.635969     2.840411    28.691844
Na    28.741864    37.815004    10.338981
O     19.863834     1.764102    16.008442
O     20.989582    25.353336    36.782575
O     44.588953     9.584224     8.376505
O     12.660077    29.355817    13.556868
Ca    20.622621    38.785719    44.863916
Si     9.727345    24.267828    37.878104
Si    26.537569    18.577216    20.811849
Si     2.379515    35.061124    12.047644
O     43.037728    23.425812    26.302279
Si    18.431888    19.483380     0.077666
O      4.426463     9.297818    21.449870
O     44.521679    35.254311    18.040618
O     39.209208    40.939182    21.435645
O     36.011737    38.427325    15.724528
O     44.596729    22.643912     7.965265
O     22.650336    18.416112    11.178122
Na    45.276463     6.920610    11.624887
Si    38.934491     8.247573    19.805403
O     26.678020     9.370098    43.176632
O     40.665685    22.839988     2.038248
Si    13.844425    17.362191    18.933655
Si    29.639202    45.915640    29.011967
O     21.177625    45.356189    31.260860
O      6.873761     1.565390    19.072682
Na    12.935153    26.652076     5.320534
O     21.620920     9.533813    20.057991
Ca    35.641738    17.060071     6.161413
Si    24.874458     8.756513    46.233557
O     17.012865    25.033330    11.963013
Na     6.855912    34.040006    10.627824
Si    15.928244    23.327930    24.852241
O     11.851453    12.069223    25.365816
Na    44.953107    12.092026    25.021293
Si    46.094062    46.067199    42.375456
O     29.486846     2.584241    22.929349
Ca    36.183429    17.636664    44.518572
Na     8.968332     0.607552    12.027258
O     17.851881    37.301819    37.528449
Si    24.209224    22.944021    24.774357
O     36.322602    11.155498    37.752549
Na    23.682674    41.589079    34.654631
O     17.939419    30.701813     7.890425
O     29.096621    31.650826    19.370461
Si    24.350033    20.526358     1.010722
O     31.315351    37.138571    12.244401
O     14.317694    18.950807     1.770815
O     42.463203    31.242119     4.057779
O      7.465350    20.844892    20.267406
O     16.922484    13.362193    28.361242
Na     6.764407     9.537748     9.292706
O     36.117701    28.205156    26.427383
O     12.340126    40.606333    29.212382
Si    13.159343    13.730356    30.955527
O     20.231616    18.197569    15.754462
Na    17.238628    43.662966    21.315241
O     46.037766    11.066191     5.395610
O     42.290158    24.045092    24.023675
Ca    40.756258    33.142450     4.633052
O     41.600874    16.739670     3.219422
O     38.792738     0.923887     9.069425
O     39.844999    42.362406    44.257120
Si    10.507943    39.595853    18.668972
Si    43.770642     6.426090    44.843485
O     15.023646    42.068449    26.268110
O     21.353470    13.862610    15.774021
O     27.280408     1.608308     8.241722
Ca     1.027797    35.904961    14.590270
Na    18.276649    31.905355     9.297937
O     38.678191    43.460350    10.885625
O     40.779730    27.829352    25.616495
O     31.598960    22.020878    38.766384
O     27.650158    36.255186     6.637451
O     20.232019    10.706136    28.834488
Na    20.446249    24.348399     6.530493
Si     4.021095     8.244532     8.200345
O      2.713886    10.657178    19.959857
Si    35.543250    36.120256     9.671947
O     40.894013    43.336848    11.200690
O     38.763414    36.008057    11.886340
O     31.652443     3.047775    46.323451
Si    27.595792     4.445120    28.815921
O      6.100345    10.278444    13.201279
O     39.099323    41.003957    18.917387
Na    13.626016    45.519079    20.526873
O     16.061398     8.100784     5.458917
Na    31.299601    28.754138    40.036162
O      1.454364    12.086507    33.597138
O     45.046529    45.352496     2.573090
O     23.987043    11.550795     6.268845
O     20.168890    37.633630    25.198160
O     16.782440    42.659561    24.001946
Si    40.245854     7.842722     0.351078
O     43.326273    26.150304    40.273391
Na    15.649280    15.575311    14.177266
O     18.057638    35.219952    42.106811
Ca    35.524585    32.785339    18.421686
O     31.279011    33.310274    46.004267
O     24.352708    22.811060    17.074433
Na    26.709086    28.184925    42.501839
O     16.301682    36.261107    31.429859
Ca    18.227670    35.787709    18.239258
O     32.763377     1.969023    26.560977
Ca    14.635197    10.283617    13.487660
O     42.172551    39.653620     1.927195
O     43.323542     1.774887    42.110550
Ca    15.737879     1.970066    23.721100
Si    37.458286    43.389757    36.108817
O      1.566963    40.956940    12.957611
O     14.533055    29.858935    39.913457
Si    39.380685    15.442363    32.084160
O     37.472754    45.475066    12.854838
Na    24.686584    15.159758     1.133237
Na    38.596875    43.074954    23.716612
O     46.212889    29.332198    40.221419
O     17.811576    26.820703    32.562614
O     42.668514    37.113820     2.378790
O     43.818643     8.123691    10.437014
Si     8.461309    42.422073     2.088082
Si    22.265151    43.752034     2.781985
O      5.224799    30.443464    18.469122
Ca     1.934967    13.708911    36.797177
O     40.478720    44.287779     3.776223
Na    13.887512    44.529525    44.432831
O      3.140761     9.153485     3.644119
Na    22.186879    10.859735    20.763139
O     41.953132     9.689121     9.417576
Si    36.402282     9.102574    21.826914
O     19.385262    37.142394    16.809962
Si    46.026913    16.464182    29.847490
O     35.990427    44.067156    10.784496
Na    38.046459     9.780432     5.433108
O     22.344071    16.300048     9.068869
Ca    19.104088    45.874770    39.944803
O     24.836489    21.191833     4.830843
O     18.875779     4.532791    34.140026
Si    21.792501    24.441666    35.726033
Si     6.484387    13.259278    31.555075
Na    46.374659     0.345302    41.987597
O     29.858803    45.410130    14.275414
Si    43.070577     7.741341    13.315365
O     20.257021    39.489669    24.160047
Si    40.474385    34.580631    37.453972
O      8.630981     6.094335     0.856279
O      1.249079    11.120919    24.079974
O     13.102570     6.551694    12.321080
O     41.502053     6.593219    34.537632
O     21.887131    45.389929    16.732483
Na    24.158632    17.705328    28.195281
O     45.932848    42.183912    40.992851
O     15.231910    44.885469    42.311281
O     10.055790     3.650586    21.659479
O     41.645911    36.867002    13.653218
O     17.142433    30.995211    13.275982
Na    20.313796    15.694387    22.931835
Si     7.698134     2.100313    20.347972
O     41.633879    27.318633    46.743773
O     17.488952    41.821489    15.300746
Na    14.146728    42.049972     6.241288
Na    16.311283    40.288415    18.013112
O     29.719473     9.734238    16.548239
Ca    36.916532    39.133747    11.138703
O     29.140123     3.298755     6.965005
O     20.932277    24.839643     8.149339
O     35.119575    36.444350    15.280496
Ca    38.041482     9.585359    31.626368
O     18.870733    36.703355     1.525982
Na     9.893504    23.364562     0.943135
Si    42.013471    35.660969    12.651976
O     38.955113    15.583316    38.642192
O     43.147774    15.054618    27.716677
Na    15.590854    27.448120    11.663272
O      8.471989     9.790173    30.771750
Ca    21.973227     4.805863    37.563337
O     40.216319    27.038073    11.421032
O     12.191993     5.390579    10.164058
Si     4.765234    30.534891    44.678361
O      9.779834    33.596529     5.120159
O     18.933739    40.548603    32.324862
Na     5.386297    28.510612     4.697001
Si    35.946963     5.038668    42.838680
O     43.540377    38.291601     0.156318
Na     9.570018    14.484026     6.364684
Na    40.067552    45.481756    11.187633
Na     9.373720    26.104132    39.766387
O     35.202143    39.612917    12.756501
Si    45.354871    46.045283    13.479430
O     33.255615    34.936746    21.645615
O     34.611032    22.426764    34.119265
Na    21.456177    33.349235     5.435205
Na     1.710926    32.822658    17.886914
Ca    12.520853    27.760671    30.797943
O     31.484285     4.518686    12.438400
Ca    12.773974    38.264717    28.335251
Ca    33.563613    31.234440    14.790923
O      2.471437     6.647691     3.014613
O     23.342723    33.285751    10.601327
O      6.067630    45.549254    31.275978
Na    41.237342     1.534747    41.478657
Na    46.096704     6.448776     4.961074
O     13.179988     0.012460    28.699453
Ca     5.442779    40.068941     9.961836
Si    36.471793    20.861274    43.524868
O     21.649251    13.288303     1.020999
O     10.945378    24.976605     1.731352
Ca    14.490418    45.429079     0.387121
Na    15.831858    10.632758    21.707857
Si    21.344417    18.067843    16.910726
O      9.066581    39.075374    19.162608
Na    45.860264    45.246644    20.671872
O     30.800312    38.061566    43.634396
P     11.484267     1.990000    10.456540
O     17.431023    12.966190    22.964054
O     11.277343     2.137587     8.883331
O      9.713162    45.788408    11.827995
O     21.790887    25.295103    29.371694
O     46.485040    27.346389    40.426124
O     15.908299    23.438539    42.142546
Ca    23.221718    21.599675    44.848042
Na     1.320308     8.956732    18.872761
P      1.453017    18.324883     9.361881
O      4.698792    38.577109     3.030374
Ca    31.971330    27.683705    32.780704
Na    35.160454     6.757632    22.149330
O      6.286462     9.806434    29.607251
Na     8.961894    30.224119    43.437183
O      8.320297    19.586330     7.394927
Na    34.422274    30.745022    38.703829
Na    21.766857    12.490678    18.438202
Ca    46.314928    18.076525     7.736902
O     31.494059    37.071003    12.232378
O     19.261561    21.392929    12.552937
O     37.166367    36.692306    10.275872
O     30.613624    19.826051    37.635972
O     35.140062    29.449178    41.387997
Na     7.551271    26.504401    29.862343
O      0.453749    18.814744    24.737473
O      3.248465    32.073635    19.184599
O      1.223574    33.216129    39.427247
Na    23.924076    12.149156     0.794267
Na    35.931109    45.892628    32.837889
O      9.262415     1.736874    20.233799
O     30.991741    14.193378    35.408380
Si     0.344308    36.801709    31.092756
Na    14.750609    13.648323    33.000525
O     19.120774    29.408241    41.458918
Na     8.008035    21.819674     9.692638
Si    18.009293    29.910144    12.461560
Si    40.900829    15.868913    24.826022
O     11.849606    34.444944    44.666887
O     10.695396     5.170223    22.849478
Na    25.392241    21.290988    26.645502
Na    38.482777     5.083663    10.835540
O     15.082876    17.419815    17.906515
Si     2.430075    43.251629     4.635176
Si    13.554531    25.922004    29.082319
Ca    14.265297    18.056936    15.558989
O      2.108784    26.602946     6.445828
Na    41.952176    29.239762    18.145247
O     26.633086     6.949284    44.166286
O      5.422529    42.894539    16.640747
O     43.565049    22.507773    35.958148
Si     6.453663    36.980058    12.656522
O     21.327137    29.824039    27.172922
O     25.250295    28.290324    14.350769
