2835
Sol-gel 45S5 v5.0, N=2835, rho=1.0000, box=46.7665, NC=0.803, seed=42
O      1.348782    28.929639    40.859697
O     14.351229    33.920682    22.453251
Si    36.700650     0.834164     5.104284
Na     6.269524    23.310317    30.229179
Si    32.651899     9.681629    14.126834
O      9.898525    15.821354    35.745954
O     40.099553    26.189012    29.529577
Si     7.221829     9.244195    13.624463
O     29.055246    33.358770    41.884002
O     22.662924    15.787835    19.958688
Na    24.782708    30.286424    31.252239
O     31.282233     3.362979    46.426487
O      8.757809    37.074568    22.641977
Na    36.180748    25.266997    24.738088
O      7.685493     6.173762    44.804448
Si    12.175593    15.081753    11.340077
O     42.092815    36.497513    14.025292
O     33.042335     1.312263    25.671425
O      1.238079    41.450782    41.532261
Si    28.935133     1.875104    21.593371
O     15.105789    24.424133    39.560945
Si    16.027522     8.288686    31.712095
O     24.308894    41.446255    34.030188
Ca    25.018938    25.158388     3.416733
Ca    15.538708     5.100007    45.620133
Na     0.252025    18.955448    12.290329
O     33.719779    46.313425    37.564416
O     31.557167    22.450872    24.908582
O     15.066215     2.445089    21.132937
Ca    35.394554    34.111885    20.539257
O     20.850853    34.038808     8.271139
O     25.523780    24.409188    36.806225
O     26.836781    12.453417     7.983187
Ca    12.383504    30.930166    17.894409
O     43.357325    26.079052    39.631283
Si    34.829929    45.247056    15.237716
Na    43.202167     4.842616    32.953164
Na    45.852488    42.417870    18.692969
O     37.362245    14.275028    20.526058
O     29.276750    37.188041    21.218999
Na    46.355342    36.229173    14.167686
Ca    40.436695    22.173261    23.780430
Ca    42.572541    31.073601    44.448371
P     16.471750    33.270134     0.862272
O     17.378795    23.485271    25.532863
O     35.464270     6.035016    36.345619
O     26.604690    31.105905     5.204082
O     43.960255    42.894167    17.013106
O      7.548013    26.379817    41.475458
O     14.908781     1.129526     6.812866
O     39.708386    34.115050    22.368525
Si    40.752764    29.660933    20.064056
O     21.682481    10.464310    28.531502
Ca    33.525528    38.702590     7.609189
O     26.162243     7.209474    43.773975
O     33.966046    28.383116    39.002029
O     18.416744    43.303748    16.523833
O     10.985568    37.906850    30.011586
O     36.158362    36.395701    29.170707
Na    25.567065    37.522022     5.662756
O     39.890655    19.315177    45.891739
O     30.690239     3.870129    40.408077
O     42.252731    46.519823     0.711281
Na    25.282127    45.699468    32.748247
O     24.565180     8.893992    13.596854
Si     2.717531    17.144996    25.231817
Na    30.209817     9.918639    35.736307
Si    30.691414     1.691204     0.253934
O     43.420313    28.660041     0.416189
O     28.799032    23.581019     3.266570
O     10.309842     1.556043    42.589545
O     14.004381    30.679955    46.039141
O     22.369464    13.617162     1.694202
Si    20.634449    40.999179    24.667354
Ca    11.183986    10.294680    22.719477
O     20.335358    19.609784     9.895705
Na    40.577129     1.554695     6.921805
O     25.208147    36.023479    37.334217
O     24.806497    36.830572     9.731341
O     11.239304    33.881809    33.458920
O     11.601943     1.980072     8.825860
Si    22.517671    44.864629    30.516048
Na    46.293930    42.115572    26.865138
O     43.953412    23.280993     9.947468
O     42.587981     6.210339    13.438786
Ca    33.989252     5.716374     2.057815
Si    24.087426    11.970595    43.775494
Ca    25.004231     8.365592    21.223868
O     27.485020    13.467998     1.949243
O     45.013519    45.614603     2.306417
Ca    40.334629    13.939879    13.600990
Ca    12.412886    28.108805    41.581212
Na    39.551394    12.313831    36.019288
O     35.670568     1.268807    25.841785
Na     9.117844    26.682626    39.857171
O     18.709974    39.198620    30.270018
O      6.496840    15.178264    32.956968
Ca    30.178701    46.259351     0.349020
O     26.740953    14.820353     6.852328
O     45.056924     6.132467    38.393061
O     32.807684    16.558738    16.725393
Na    31.994156    23.861486    11.429514
P     44.080637    34.333464    10.066200
O     25.662544    16.987614    20.062881
Ca    35.422367    28.524725    33.383574
Na    13.472730    19.442459    16.213334
O      5.882118     0.691509    35.310866
Si    19.917020    30.488541    40.569512
O     13.826999    20.363797     2.601900
O     38.209296    12.445391    22.198691
Ca    19.582450     7.999781    10.416944
Si    13.461969     5.511148    11.146262
O     11.481381    24.627294     2.675145
O     37.903059     6.279421     6.901640
O     34.518023    19.846922    13.226077
Si    40.820570     8.993232    10.325949
Na    39.529518    41.653796    22.838149
O     12.048948    40.669566     7.624393
O     43.714691    12.598114    27.314420
O      1.932050    39.785319     3.196945
O      9.094957    33.818589     6.202115
Na    17.935094    18.155400    12.551482
O     30.339417    17.445715    30.276001
O     34.568275    28.619277    25.887638
O     15.365444    11.035632    15.898509
Si    42.360726    23.393061    35.359840
O     17.221196     2.853771    34.639395
Na     1.989028    16.168482     6.404097
Na    12.572122     5.865799    21.122817
O     43.341222    46.491404    36.045557
O     24.462699    13.409805    44.391890
Na    39.940297    15.792921    28.179537
Na     8.211885    15.271273     2.198754
O     41.851986    12.092297    29.817666
Na    28.067213    22.375048    38.760489
O     21.262331    20.848385     7.823921
Si    43.744525    21.869904     9.200946
O     20.215080    23.878349     6.834894
Si    14.700957    18.784314    12.537405
Si    41.885720    31.408989    11.114453
P     45.338197    34.285675    17.256308
P      8.320347    28.672989     0.660565
O     42.496294    25.809329    28.529737
Ca    44.776482    11.114415     9.956275
Na    46.268155    29.345738     7.387480
Na     2.163467     6.134251     0.312803
Na    44.290500    32.970648    12.929682
Si    20.962651    38.374593    11.259182
Si    18.593346    14.074321    22.849372
Si    41.545754    43.477266     4.668750
O     36.320650    45.648038    14.253441
Si    41.117119    13.277408    39.138735
Ca    39.138918    14.142905     1.399138
Na    25.991177     1.258575    15.519440
Ca    32.856740    18.718654    25.165677
O      1.824861    24.169398     0.318678
O     44.842257    20.452489    37.513596
Si    44.984599    42.491151    32.722863
O      7.110839    44.934762    24.400012
O     36.204032    13.013254    32.653811
O      6.617521    39.736724    12.329858
O     37.915419     8.498774    21.200165
Na     7.550290    13.282466    42.078526
O     40.818057     9.455128     8.783630
O     22.221732     3.902639    12.058126
Ca    43.028966    44.667556     1.234322
Na     9.063510    43.567469    20.780558
O     18.120061    45.047154    45.358346
Na     6.227163     0.448268    19.061162
O     44.096446     0.274172    13.612256
Si    25.823764    23.419087    32.089447
O     39.747347     9.777003    11.290735
Si    36.471793    20.861274    43.524868
O      5.140927    35.422353     4.581390
O     42.191418     4.839008     5.068913
O     38.687501    23.805340    40.510998
O     20.801857    36.935436    24.459015
O     46.246233    33.213684    43.667263
O      3.261875    11.877870    40.129100
O     13.629399    15.603259    19.046603
P     42.094130    16.024559     1.822930
O      3.013222    43.388236    19.618113
Na    14.687058     9.076778     4.131300
O     45.456192     6.436099    26.517781
O     17.688907    15.348267    23.238156
O     23.285507    19.248442    28.160172
Ca     8.123190    45.981881    15.956068
O     23.380652    44.185357    29.338782
Na    19.086402    26.984378    29.805267
Na    33.079948    22.593770    40.011516
Ca    26.703070    12.961373    44.220661
O     30.669462     6.436590    22.678747
O     35.753406    22.167955    44.131996
O     18.208226    39.435312     8.108213
Ca    10.190919    27.930790    45.283593
O     31.667028     3.761736    42.833261
O      4.559572    10.656988    22.050855
Si     7.966264    45.767306    23.319633
O     24.479106    29.568685    44.379346
O     24.938558    43.843778    45.993489
O     12.133036    34.986647    26.277176
Na     3.865396     5.249124    35.136701
O     18.931500    36.748347    40.816278
Na    43.780316    15.750610    34.926474
O     30.459452    35.027277     6.182288
O     36.300632    11.435695    37.528558
O      0.123674    22.701552     6.688275
Na    35.466260    11.845270    26.303307
O      9.741771    14.250590    46.122566
O     26.178150    19.366778     6.869591
O     20.465582    21.663912     4.998602
Si     4.236067    10.565910    20.476323
Ca    29.016561    26.625456     8.756041
O     14.315164    22.119446    40.595795
Si     7.200340    19.772897    28.979736
O     21.996562    14.459498    26.519625
O     45.058446    32.822334    17.278016
Si    26.258901    37.037882    36.656720
O     19.254944    19.240764    28.310828
O      1.713306    40.514667    28.928890
Si    31.232976     6.049847    12.867924
O     21.571780    13.143567    10.819648
Ca     8.937310    34.001081    16.917795
O     29.086499     3.427950    42.413123
Ca     5.441897    25.449338    28.896876
Na    33.034730    34.788361    14.265739
Si    35.946032    39.845795    23.607337
Na     3.554728     2.612013    24.776839
O     30.503643    37.710852    41.047193
Ca    26.958251    10.197207     5.808174
Si    43.376168    27.938059    31.284349
O     26.220672    46.534675     3.339952
Si     5.022862     5.393415    28.975094
O     33.641321    44.700470    40.348249
Si    18.477535    36.800166    42.705017
Na    41.585599    27.573826    29.870806
O     17.449411     7.573383    31.954318
O     46.116758    33.087293    29.322088
O     39.571621    25.585358    46.283601
O     35.681291    37.007200    35.113548
O     24.180670    29.009619    41.961102
Na     0.653616     1.464610    30.105003
O     40.640769    30.924384     3.804725
O      1.910514     9.436999    29.404976
Ca    17.564693    46.587952    35.824082
Na    41.195549    39.680372    20.191948
O     45.414676     2.517884    29.483420
Si    19.005296    38.068895     7.808741
O     39.182168     9.031222     0.131669
O     23.056865    21.544877    15.053453
O      8.405299    19.345172    18.621537
Na    14.167572    16.026828     3.048768
Ca    12.876720    28.073618    45.902599
Ca    36.605227    24.635876    21.868038
O     10.576431    12.243901    22.222970
O      1.741751    18.425358    25.256803
Na     9.206196    29.957838    20.723048
O     20.819437    12.152347    16.359608
Si    45.447876    32.962830    22.585344
Si    22.522359    43.103993    23.079582
O     19.357846    17.825841    16.708282
O     28.015715     5.667881    27.856432
Na    14.233583    14.399824    24.991920
O     19.432009    37.505311     1.728803
Si    38.705424    29.540741    35.453120
O     37.293405    10.049720    43.611392
O     10.035708    21.180335     7.547493
O     14.470021    14.647635    40.856653
O     16.794728    17.915359     4.862366
O     15.740905     6.391411    24.924345
Si    29.501824     8.301364    15.847096
O     26.955284    27.073112    23.491873
Na     0.093665    19.264351    36.393083
O      1.159029     7.636938     1.985409
Na    11.144034     3.933799    13.488976
Si    20.286332    21.948784     7.046450
O     12.072887    24.006690    11.602799
O      0.647801    18.509468    14.431499
Ca    22.396254    34.934282    10.834980
Ca    39.656326     4.675527    22.373845
Na    16.647589    26.702259    15.898237
O     23.083508    20.147222     1.929564
O     22.027632    43.694627    31.507540
O     42.689130    33.225476    10.695774
O     18.570188    31.290051    40.937922
Si    21.600387     7.542119    23.432117
Na    10.131800    11.977607    12.813250
Na    15.096683    21.286004    36.604023
Na     6.829986    19.733379    22.459683
Na     0.341141    22.466193     8.501667
O     10.343452    18.628762     7.315453
Na    39.639508    34.720070    24.085652
Si     1.980588    41.348412    33.184502
O     25.382983    18.379628    13.970616
O      5.919374     6.545133    24.568783
O      8.510263    27.636000     9.492010
O      4.073864    28.160222    10.480011
O     21.991976    24.996044    29.711620
Na     2.695212    28.375914     5.094228
Na    32.643102     4.883476    14.719080
O     38.744347    17.963704     0.991457
Si    12.662443    33.199767    45.840760
Ca     1.397128    42.198265    21.750341
Na     8.393744    15.873539    17.278487
O     43.119606     0.283735     4.755196
Si    28.631442     1.645058     7.366817
Na    38.746474    42.765207    12.178976
O     31.681761    26.008852    10.123494
Na    13.970119    12.631621     0.850001
O     31.252520    15.772251    19.816493
O      8.645851    32.110306    21.124163
Na     1.662754    13.799342    31.938383
O      8.574515    10.864642    20.389976
O     20.367010    20.844806    24.423587
O     32.762489    45.462856    35.334282
O     21.586174    10.479950    18.084077
Si    39.804458     2.033177     8.488048
O     39.150302     6.994477    29.574942
Si    44.242265    14.092744    27.031850
O     28.872835    30.802236     3.949922
O     32.269072     8.008060     8.800314
O     31.069820    44.878118    28.798045
Si    28.220057    46.048625    16.907782
Ca    23.476279    18.477672    20.057774
Na    36.537139    14.841935    22.630215
O     27.998829    41.320120     3.782033
O      2.269877    18.234116    10.604701
P     21.162218    39.408018    15.147733
O     34.995879     9.342949    31.015694
Si    19.467142     2.303443    17.472630
Na    11.799262     6.043558     8.400250
O     14.494062    42.970783    28.584750
Si     7.258770    34.355667     9.027877
O     11.677867    26.128472     4.189116
O      4.472062     7.420680    26.557571
Si    15.426459     6.758892     4.835796
O     24.090578     6.678615    32.254569
O     15.932583    21.724745     8.087695
Na     0.683667    35.949286    27.218417
Na    43.943124    12.697906    29.566444
O     13.958052    12.869432    14.782294
Si    14.419669     5.952264    25.732792
Na     1.108743    17.221317    26.569220
O     32.813755    11.044722    14.968190
O     40.186602     7.429074     1.905904
Ca    10.395293    16.102588    25.048005
O      7.827747    27.948798    27.243612
O     36.473118    41.275284    24.127760
O     14.171021     6.587378     3.842539
Na    13.584313    40.138297    16.548393
O      0.851302    40.562429    34.020592
O     35.509997    19.642952    43.952350
Si     6.536481    22.348654    19.496462
O     39.070582     0.430998    35.434622
O     12.562619    16.967228    17.730612
Si    19.865335     2.404695    31.439463
O     23.534767    45.509538    16.262495
O     33.874508    30.640165    40.310561
Si    31.779109    10.012350     4.637226
Si    35.543250    36.120256     9.671947
Na    23.934067    32.208915    14.030281
O      2.820781    26.790148    37.670565
Na    11.367987    44.188669    39.981442
O      9.988359     6.551382    24.931133
O      7.977160     5.268461    23.959537
Si    22.948655    43.858873    26.737727
O     25.448632    27.104915    41.629774
O      8.551508    25.571367    28.026818
O      1.461755     5.964187    33.222636
O     19.550199    29.524015    12.199619
O     24.632408     4.721806    11.299949
O     25.336481    19.295214    27.973591
Ca    46.672309    12.613551    27.526120
O     17.941577     7.522280    27.079837
Si    24.331453    37.407150    14.705762
Na    27.199301     7.507718    31.473633
O     12.687837    44.144293    22.011900
Na    16.252740    43.903222     7.519471
O     41.100411    29.668996     6.047874
Na     7.713711    36.180272    16.215915
Ca    17.619576    41.159851    16.910875
O     30.878566     1.177788    43.968457
Na    39.679851     4.464056    31.944866
O     13.436194     6.740626    10.107118
Ca     7.876695    25.526310    44.002287
O      4.137179    46.255892    29.840518
Na     5.769262    26.142769     1.134590
O      5.399221    31.727642    20.633981
O     14.528661    38.821853    26.469229
O     11.567916    13.521318    31.081072
Si     8.267047    40.060863    35.473313
Na    14.216586    12.459583    17.404803
O     20.254192    21.137494     1.517093
Na    20.360807    22.674288    33.327992
O     37.794619     2.787525    22.855368
O     13.806120    17.082930     8.148512
O      6.468385    37.735060     6.146596
P     20.627653    19.377881    24.406341
Na    38.528124     1.114817     2.757081
Na     2.404798    17.177367    13.511559
O     31.914815     4.735295    12.236142
Si     0.501695     9.776898    24.556549
Si     7.698134     2.100313    20.347972
Si    23.117367    19.050918    26.571206
O     34.369209     4.896318    42.194016
O      2.903356    42.274883     3.446028
O     25.234482    37.987246    13.505710
O     28.368865     8.221786    44.586123
O     46.067867    16.417729    21.261223
O      6.312073    30.312191    44.291328
O     40.262633    46.476092    29.459904
O     25.764114    21.779795     6.020247
O      3.609971     7.801623    38.661005
O     18.904301    24.066191    45.827120
O      1.139402    45.054758    18.745338
O     29.726480    20.637081    38.945051
Ca    27.770753    26.628460    41.303548
Si    31.324865    20.444071    38.941456
Na    11.264833    21.096161    22.797863
Na    25.834540    22.384408    12.539129
Si    35.946963     5.038668    42.838680
Ca    38.732171     3.374379    24.868918
O      3.989655    17.251207    32.560103
Na     6.109587    14.840621    12.749673
Ca    46.537684    42.917167    30.856604
Ca    43.203973    18.296197    32.311921
O     10.309111    39.426502    20.257647
O     45.121722    24.955599     5.943534
O     40.929882    13.194683    27.660821
Na    39.935204    37.817940    14.413924
Si    30.512019    14.788233    36.825459
P      6.122733     2.418834    44.213836
Ca    34.891805    31.793624    32.821559
Na    15.888316     0.518684    22.644551
O     15.988838    44.055010     0.791865
Na     9.745123    28.392162    16.566658
O     15.587725    21.786697    24.534834
O     10.596214    36.093023    24.407579
O     10.404281    11.673164    17.775816
O      3.736425     2.726448     4.126210
O     17.761811    16.524206    15.827606
O     26.045093    14.566809     9.385983
Si     9.714212    11.840561     1.405548
O     24.274819    41.538447    20.896831
O     26.510758    43.434690     8.518631
Na    10.083382    27.666941    19.713486
Si    44.312936    17.132233    34.537571
O     21.611083    19.642927    17.110968
Si     8.383754    28.031043    40.900217
Si    27.645735    31.834645    18.408724
Ca    15.303697     1.614663    11.425289
O     35.185967    44.784046    35.998478
O     29.736022    45.425819    17.586788
Ca     2.740808     8.474961     6.173931
P      2.569118    27.205357     1.015930
O      2.487017    44.769314     9.701863
O     18.496832    13.801720    21.265556
Na    28.412758    29.223616     2.521417
O     15.365241    38.340211    36.894625
O     10.944891     3.030599    26.907363
Si    46.711779    28.692027    41.611883
O     19.964658    18.720715    25.567663
Na    15.964944    23.237554     6.238231
O     25.954586    27.398924    39.449537
Na    23.429465     6.989186    44.393085
O      3.830778    29.815089    43.582562
O     22.472074    44.492909    22.110968
O     18.281547     9.261630    12.420664
Ca    40.737591     6.054442    15.054273
O     34.664785    22.130661    36.419375
O     17.469994    28.226837    12.873619
Si    35.333950    12.038746    38.666080
Na    30.632247    45.031500    11.252787
O     24.542514    13.501972     7.497632
Na    20.490323     4.594991    29.332949
O     20.055665    30.394977    38.968224
O      9.244633    12.244995    46.465384
Na    21.927129    19.511564    15.238373
O     45.530973    41.188097    36.468135
O     21.926865    20.254144    12.298549
O     42.744687    37.043792     2.285336
Na    23.693961    18.804346    16.419819
O      9.842499    16.121222     5.766082
O     23.001076    13.734511    16.050935
O     33.275016    27.261701    31.178151
Si    18.349734    42.805331    23.239056
O     40.980277    45.649576    34.384733
Si     3.966342    15.990731    33.561480
O     44.780399    21.971845    35.569635
Na    32.807100     5.531076    40.895248
Na     1.118376    41.191216    18.515358
O      7.743316     4.948858     2.429411
O     26.115589    27.495464     1.683678
Si    11.469907    33.215691    39.813953
P     23.105632    14.042670    22.318519
Si    10.876485    17.187246    17.134897
O     39.080704    26.739484     8.739010
O     33.180086    21.381536    17.719945
O      7.613344    17.953229    21.275134
O      1.196452    38.183098    23.187952
O     10.627101    29.720769    44.405531
O     20.624031    46.484183    43.236937
O     20.130920     4.369046    40.387727
Na    31.334720     1.009337     9.202587
Na     5.087469    33.649351     1.117802
O      7.891306    20.871996    12.388905
Na    34.783584    27.927456    35.561956
Ca    12.897201    33.630218    38.493734
O      5.192751    11.473279    38.346886
Na    30.439540    10.604955    11.325148
O     40.861352    35.392620    42.914504
Si    18.473111    31.921961     6.985708
O     45.073664     5.920507    45.739945
Ca    45.373556    30.117505    40.630254
Ca    33.404111    35.408809     7.725414
O     13.054368    35.633993    31.673116
O     39.121707    29.886510    26.970958
Si    20.423749    10.035377    19.105460
O     14.556188     6.472810    27.250189
Na    13.685775    41.900803    29.904549
Si    31.691733     5.697681    23.679285
O      6.594070    43.960977    42.655900
Ca     0.952175    42.634480    34.345321
Ca    36.344057     1.109150    13.749445
Na    14.548614     0.877839     1.080599
O     20.688134     7.350034    22.119487
Na    22.620913    36.164020    29.608399
O     12.411970    29.751455    42.770797
O     20.926731    36.956828    10.497111
Na    32.659013    33.550274    25.568593
Si     9.679974    19.769797     8.237374
Ca    36.953619    41.512401     8.262154
Ca    14.597249    35.338426    42.094244
O     37.510349    28.548599    35.876853
Si    20.581414    25.866736    30.590089
Na    32.562436    46.409906    43.156063
O     38.766903     3.340130     9.521110
O     20.595854     1.163222    22.291893
Na    42.562771    35.993386    19.794958
Si    36.581290    34.980890    38.118126
O      6.858198    11.372224    30.868219
Na    39.235975     5.358160    44.141949
Ca    43.054962     8.062516    45.254119
O      9.176021     9.214635    22.022671
Si     7.510155    36.239740    23.223805
Na    40.795967    45.849785    22.078806
Na    18.633290    14.511663    19.141746
O     41.201447    27.114700    40.596124
O     27.478204    20.645214    17.010189
O     44.063572     1.547135    24.629599
Na    13.751326    30.967640    13.691892
Na    10.363716    36.355076     0.835814
Si    12.274363    43.811484    11.269353
Si    31.694069    38.090103    11.002121
O     10.256453    35.882488    45.031160
Si    44.657268    11.392170     4.626354
Ca    14.403964     5.119567    32.719052
O     12.947576    32.343138    39.839138
Ca    16.177763    37.962684     8.133649
Na    40.867189     8.555299    17.812145
O     14.472165    25.076882    28.064567
O     32.747515    30.322577    30.633542
O      4.745550     7.919021     9.600811
O     31.804699    37.784872    20.857805
Si    43.770642     6.426090    44.843485
O     17.787102    21.087776    29.492977
Na    14.513020    44.679058    25.129482
O      6.967034    42.847935     6.741680
Na    11.350761    39.214687    26.159170
O     33.811735    31.585138    35.031983
Si    39.564823     1.882527    21.027753
O     45.982390     7.828538    21.975970
O     35.576808    36.327070    15.504724
O     41.284651    26.152041    16.814060
O     45.538751    30.391160    14.010960
Na    21.099809     9.362065    11.832604
O     42.942831    37.220585     7.534190
O      3.992621     0.730716    32.144901
Si    41.659258    41.783384    24.265196
O     31.278300    31.612500    36.971898
O     29.592229     0.366869     7.554485
O     12.468240    36.208158    42.324643
O      9.720978    12.735720    43.903755
O     46.562680    46.433644     1.050207
Si    33.646774    20.207485    29.337047
O     29.118936    33.610898    45.951112
Na    39.679678    11.629766    14.574917
O     21.615157    41.720316    23.478023
Ca    37.853799    29.616411    22.288117
Na     9.100055    34.081524    28.248190
Na    26.641492     0.091091    21.068313
Si    29.648805     4.952452     6.563194
O     42.328372    28.743724    21.073396
O      0.165420    18.960173     9.760129
O      7.395184    43.414680     1.402364
O     43.492373    20.471316    45.620816
Na    34.728862     1.408084    22.126482
Si    41.938122    22.240338     2.821462
O      5.264958    30.497373    10.710440
Ca    33.883247    40.794822    45.298938
Si    28.944561    35.541001     5.999828
O     43.890650    17.898975    36.259140
Si    40.474385    34.580631    37.453972
O     22.359740    40.222909    31.488415
O      3.709790    33.133123     5.134010
O     20.089396     2.982037    24.153371
Ca    16.007921    43.890677    37.650535
O     24.646994    44.722090    43.575398
Na     1.703651    30.988299    29.372821
O     20.488225     7.035244    26.439578
Si    46.026913    16.464182    29.847490
O     34.722233     0.208327    44.443762
O     43.914003    23.406696    17.813715
O      2.037274    41.456803    13.000102
O     39.822932    23.205443    38.463350
O     36.372899     5.929664     9.876539
O     16.984268    37.958029    17.312650
Si    46.653340    32.777761    27.836029
O     33.025523    26.644513    36.786178
O     31.038785    14.207778     3.562457
O     29.211345    11.261470    29.621306
O     36.101875    34.116500     2.015867
Si    45.832454    21.445282    36.668732
O     37.198227    36.899081     9.994383
Na    37.716977    13.349547    37.643320
O     37.430484    44.133299    37.536568
O     42.971053     7.695640    41.561250
O     21.202078    45.531472    29.870574
Ca    10.670840    32.814513     3.138243
O      7.835840     4.899537    10.050156
Ca    19.076675     7.946881     6.522907
Si     1.240830    34.769030    39.851866
O     16.551088    18.860263     7.236388
O      8.986575     9.624375     3.045161
Na    28.505369    28.901854    24.065231
Ca    29.493268    28.401459    28.339726
O     28.933261    15.821015    21.069405
O     18.825730    18.172842    45.995958
Si    21.062980    17.340931    43.341567
O     41.647704     6.952234    28.949120
Ca    39.890717    36.912046    24.306893
O      6.081559     1.014955    30.626890
O      8.605501    15.101295    25.980430
O     38.373991    44.836471    35.856087
Ca     5.441113    34.127447    41.491481
O     11.356791     1.539809    20.790054
Si    13.159343    13.730356    30.955527
O     17.420526    14.383717     8.899917
O     27.540514    21.471799    11.368373
Na     8.706425    14.912317    43.949575
O     28.522203    27.723943     6.408994
O     44.666739    14.337827    20.440613
O     15.372829    46.378836    42.345335
O      3.777244     0.204720    20.798412
O     33.067357    20.963974    14.437539
O     30.515259     1.117073    21.866971
O     24.617599    22.113630     1.043552
Na    40.458662    44.617451    36.620970
Na    18.064144    23.590570    42.163456
O     13.794752    13.798934    32.433246
Si    14.238838    25.857123     4.535318
Ca    27.955029    32.647732     6.185104
O     15.248778    27.961238    32.271414
Na    15.782018    43.411676    16.502510
Na    35.885395    14.094415    14.298767
O     39.994273     8.514712    20.987604
Ca     2.320626    44.325457    43.113962
Si    32.613471     4.404346    45.626455
Si    19.173447    10.235160    38.164094
Na    29.043682    37.195316    13.806760
O     36.043921    30.140119    24.368435
P     28.172627    40.072372     4.577660
O     40.302622    40.848513    45.861583
O     44.449450    44.498449    19.082328
O      5.847417    12.319451    45.573941
O     35.943609     5.468565    38.629472
Si    20.961094    14.382343    27.988691
O      7.870743    23.185242    44.880398
O     44.966723     5.892319    20.468026
O      3.056068    40.312968    32.581760
O      6.482935    37.253492    40.319265
Na    44.886067    38.099358    30.583003
Na     1.206697     5.945246     3.614385
O      0.306850    16.769549    28.662672
O     28.641209    22.304310    42.947857
Ca    39.599890    22.827023    33.364672
Si    31.917935     6.535736     9.349010
O      2.727347    19.501646    18.809559
O     21.406573    38.499439    37.974348
O     19.891111    40.498729    45.961900
O     34.856368    19.815979    30.324824
Ca    22.316687    33.787578    36.752518
O     37.334656    22.122226    35.614452
Si    37.184748    44.242387    11.849856
Ca    42.651105    32.815519    37.176213
O     17.197434    25.869671    14.132788
P     28.706607    28.749094    19.513496
Si    41.381305    31.027395     5.230591
Na    26.953953    33.026378    46.408780
Na    15.245825    42.971619    11.708887
P     45.372944    42.365888    45.396729
Ca    30.221589    37.383286     4.497658
O     26.633476    45.605962    45.071847
O      7.986614    32.327869    17.411536
O     19.835722     6.645265    31.029424
O     20.087885    32.440844     6.577518
Si    37.324234     4.670220     9.558952
O     13.580915    18.043501     1.928679
O     46.029070    10.612110     5.218794
O     38.863126    23.079784    46.582262
Na    46.407321    38.858162    15.768115
Si     2.458796    44.218668    18.355142
Si     7.610945    36.147586    40.008356
O      6.855348    39.698773     7.981258
O     10.780614    42.342840    22.236908
O     28.570816    23.327570    45.344800
O     31.392601    37.042309    43.415002
Na     7.000912    38.262373    24.456629
O      1.219387    40.741620    15.420425
O     11.812758    27.634913    43.863181
O      7.616546    22.703056    10.507779
O     39.264055    21.530136    14.084463
Ca     0.684405    12.325343     4.201265
O     26.669192    30.372795    19.283625
O     45.757001    36.363370    31.845837
O      3.190699    44.658993     4.453853
P     43.472884     0.835295    43.257269
Si    43.070577     7.741341    13.315365
O     36.989408    39.295079    22.511811
O     40.769037    44.969503    14.817324
O      8.130894    35.699495     5.115235
Na     6.275052    31.776161    18.443461
Si     2.215518     6.463383    42.970157
Na    16.579795    17.800808    28.999055
O     41.864577    34.385305    40.679274
O      8.863141    40.922100    13.020286
Ca    45.345906    36.274159    23.398638
Na     9.568048    27.764999    12.165852
O     46.695430    46.745492    14.031434
O     41.576141    43.353055     9.516203
O      3.708833    26.559708     1.726061
O     19.652531    42.290361    14.389770
O     18.110758    11.900727    33.695122
O      4.202219     5.629040    37.375579
O     10.823029    34.041503    46.278265
O      4.713636     9.137570    19.907224
O     23.622826    44.134565    19.003072
O     14.364278    42.448178     1.649355
Si    36.605797     3.868994    22.759313
O     37.763942    24.943215     1.308948
Si    32.086334     0.575354    21.246867
Ca     5.718372    19.497781    44.583261
Si     2.343315    16.013026    37.153985
O     11.867237    14.431683    21.507075
O     40.749103    13.573413    37.519518
Si    10.530774    37.086078    39.650374
O     42.750675    26.412269     1.609480
Na     9.397190    34.576882    20.101784
Si    20.501797    22.272894    46.518732
O     21.277648    36.597332    20.330659
Na    24.188516    11.914399    17.526248
O     34.083602    38.669372    36.439673
O     27.408534     1.347021     6.362939
Si     2.048549     7.215582    31.943818
O      8.214715    11.360703    22.709268
Ca    29.279231     5.747461    31.126869
Ca    22.466636     3.970791     9.458140
Na    46.560566    21.188835    41.663560
O     14.979761    35.027078    29.764751
Ca     9.180156    17.452039    11.021041
O     20.123631    14.396803    23.231908
O     14.427969    41.458820     8.440935
Ca    32.179508    27.234992    46.009036
Na     9.268324    45.158687    46.183750
O     17.083316    35.275650    12.405093
O     43.933041    24.493195    25.933641
O     33.102159    20.774920    11.197383
Si    41.763947     6.730108    41.110981
Si    29.774849    19.095844    35.036263
O     44.827893     6.753091     9.526535
Na    31.828771    24.974668     7.061437
O     26.997966    16.618876    12.899284
O     30.493744    37.380510    17.988669
Na    37.542140     6.745591    37.551692
Na    38.039602    33.519723    30.213736
Ca    14.830813     4.313680    20.079664
Na    13.250620    46.245370    22.844989
Na    43.449219    25.387705     6.552418
O      2.892861    42.582917     6.024692
O      0.538671    21.681864    36.062766
Si    25.594510    26.225602    23.640604
O     42.419048     0.418679    44.532723
O     18.125262    25.924447    43.816824
O     10.364209    29.613706    15.076072
O     19.278988    30.220519    16.527154
O     13.776380     4.358033     0.429851
O     35.255954    10.266626    41.915864
Na     1.712226    20.180881    26.691379
O     28.859590     3.470119    29.026372
Si    14.207508    40.889564     1.121010
O      2.665475    14.540655    36.587914
P     34.939770     6.114806    37.737967
O     12.921481    41.834183    20.760499
O      5.931292    21.133156    28.962522
O     34.189892    13.440101    39.122974
Ca    28.007104    39.627525    29.929556
O     37.279847     8.646647    41.448980
Na    38.664837    21.513049    40.248966
Na     8.599404    17.315723    23.450588
Si    29.762599    26.769767     6.787236
Na    39.428307    46.207445    17.520761
O     10.929406     0.282951    10.398151
Na     4.050249    36.635156    11.565676
O     11.595391    44.091974    37.026754
O     46.682309    39.251107    41.927597
O      9.279267    25.172105     3.422399
Si    33.293913    26.354017    23.177721
O     14.054799    10.465288    13.699038
Si    45.354871    46.045283    13.479430
Ca    37.313468    10.557379    39.609160
Si    40.506563    27.560964    16.773876
Na     7.761159    13.107502    39.066002
Na    12.376131    24.347492    39.170756
Na    39.609718    35.423391    10.050806
Si    17.637742    33.639739    41.508605
Na    14.737566     2.373826    30.638527
Na    45.311421    25.962137    40.966670
Ca    25.801959     7.356322    37.632202
Ca    43.770892     4.726277    24.852713
O     12.487532    39.890023    30.916608
Na    28.389170     3.133346     4.316952
O      1.723579    16.766693     9.301685
P      1.453017    18.324883     9.361881
Na    29.155205    36.438497    11.510623
O     12.334179     3.105193    22.665438
Si    24.494099     4.754840    38.977950
O     39.870758    14.659015    24.566798
O     31.522993    16.067856    33.831968
O     31.468575    32.746780    45.397473
O      2.486485    29.088800    38.904452
Si    30.503814    38.494794     7.856814
Si     4.765234    30.534891    44.678361
Si     2.289862    10.968391    29.083990
O     12.962938    15.636898     9.854038
O     44.660361    20.325905    25.184966
O     21.517875    44.966473    27.504643
O     22.728353    13.996027    20.877830
Na     6.177916    38.966893    38.908440
O     37.987943    46.433540    38.256001
O     28.510994    11.640173    19.681948
O     28.223165    38.864960     3.706051
O     24.214021    25.348842    29.006548
O      0.502264    43.838168    39.113358
O     22.644183    26.527857    40.879237
O     17.163825     7.608639    10.168557
Na    12.544137    37.301536    38.154424
Na    17.535443    16.565990    10.061241
O      1.639428    36.740006    32.047196
O     29.800965    19.331771    17.288789
O      3.443172    17.061904    23.797020
O     31.166646    31.609622    34.311621
O     35.560012    16.482663    40.391245
O      6.060174    32.381246    15.691364
O      6.784370    42.660847    19.237790
Na    10.171902    23.557029    41.451297
O     46.012683    27.549891    40.285507
O      5.764762    12.294807    40.787741
O     32.180013    15.389198    42.756068
O     32.688540    18.923849    29.175287
O     16.817544    44.582181    40.399555
Si     7.284243    25.015321    42.826194
O     12.546290    12.196698    26.349961
Si     4.909535    18.638911    42.900684
O      2.432506    14.134740    11.322241
Si    32.801616    44.564861    28.530401
O     16.918586    38.194258    24.322553
O     45.826478    29.596515    18.805866
O      7.596677    11.175810     5.662825
Na     7.911711    40.187374    30.865675
O     33.049895    38.083575    41.627989
Ca    22.486464    19.704917    45.271211
Ca    43.395748    28.237575    22.649600
O      5.288132     0.296352    23.173460
O      0.965457    18.428677    42.586202
Na    12.386838    13.846300    37.537756
Si    11.053753     2.297061     7.183422
O      6.235116    35.618726    11.825190
O     42.527854     0.507616    30.695727
O     33.075233    35.766605    25.865525
Si    46.464541    44.835408     1.889331
Ca    10.304754    36.032324    18.145627
Si     1.066458    44.828472    22.555650
O     15.221628     2.037103    18.046160
O     19.404929     3.938251    31.607777
O      9.062895     8.447219    38.730529
O     29.469239    44.412036    12.982058
Si    13.980552    27.607220    18.563503
Ca    23.355722     4.125708    43.269515
Na    14.490372    22.565412     2.439732
Na     6.193235    36.436407    20.620675
O     41.614733    11.624536     1.777999
O     11.043825    11.262692     2.105758
O     38.879469     9.450147    18.736343
O     41.547247    24.171571    30.356985
Na    22.905134    22.118615    46.239256
Si     4.101845    30.765972    19.576850
P     39.483674    41.879626    20.313000
O     10.492688    25.323752    36.933977
O     40.586333    28.047240    10.159128
O     20.163749    43.801944    28.471208
Na    37.322242     5.463736    26.723918
O     38.039083    11.249917    15.569290
O     18.907683     8.869798     8.648809
Na    45.916490    30.826670    25.347785
Si     1.086273    18.709479    40.925731
O     20.110170    39.438554    10.402815
O     15.913160    15.858816     7.272826
Na    22.077181    22.481901    41.632978
Na     7.684334     1.913123    26.268661
O     13.891385    18.617381    23.654443
O      6.916158    34.702515    39.862966
O     11.070730    35.594478     3.662409
Na    29.626715    40.563975     2.831900
Si    39.881600    16.276216    39.907954
O      7.113178    33.930391    20.012954
Na    35.701122     3.415483     2.025038
Ca    44.850808    37.107805    16.901140
O      9.317363     6.884631    22.373966
Ca    42.712895    32.498811     3.548061
O      9.938192    16.798542    18.384143
O      5.561834    33.008392     3.256095
Ca     4.868979    28.276443     0.535141
O     40.897810    25.665750    10.027384
Na    29.174761    13.750481    20.437710
O     44.900280    34.310587    23.684611
O     44.200464     3.948690    31.304740
O     30.972311    28.447036    13.452456
O     43.007833     5.769700    40.532916
O     10.083273    22.750366    37.474712
P     11.484267     1.990000    10.456540
Na    36.743491    38.427842    28.193613
O     26.318676    32.846930    31.906061
O     30.517839    35.885445    36.895264
O     41.627247    23.817131     2.725657
Si     6.484387    13.259278    31.555075
Na    15.804822    27.950314    10.295927
O     13.780179    12.480586    30.152572
O     26.773264    17.440092    28.608368
O     40.848259    24.787452    39.976437
O     19.205250     5.585404    28.268424
O     18.561638    38.635272    35.759717
O     29.573402     9.184083    17.992213
O     29.733235    22.722413    11.993426
O     18.546708    19.709233     5.761054
O     13.429076    15.071565    30.106702
O     19.271973    37.190405     9.131329
Na    31.904283     8.202162    15.303322
Na    20.523246     7.926677    17.300684
O     44.144811    45.941512    25.613126
P     39.874191    26.748136    10.000122
O     40.391001    41.799668    11.252545
Si    29.512730    16.259483    30.984199
Si     3.157604     2.469604     0.024260
O      9.496308    41.933664     0.955681
O     25.514280    45.839488     0.949257
O     24.236162    19.856791    25.739961
O     21.229529    36.401178     0.257503
Na     0.268961    30.655188    20.606218
O     43.309891    34.744036    11.603967
O     37.292064    19.707596    46.349804
O     26.709356     9.269688    15.138450
Ca    31.127617    25.405088    37.589653
Ca    33.910879    13.019534    29.691064
O     25.319559    33.747007    29.629372
O     39.591847    17.709656     5.340320
Na    36.673378    16.654770     0.206114
O     18.656053     1.567661    18.652825
O     22.095557    19.196313    25.131250
P     30.672887    12.862243     3.037334
O     35.792259    32.949188    34.385129
O     22.091952    23.701913    37.124316
O     23.074614    11.172135    15.499299
O     34.966923    29.212136    30.687630
Si    30.547507    31.467007    20.332197
O     27.680059    21.663162     4.675333
O     31.847186    23.181369    27.395295
Na    27.000174    33.366361    43.465545
O     34.189834    20.707418    27.906225
O     36.387796    33.384683    38.035773
Na    13.682935     9.844269     7.401731
Ca    32.920827    18.300780    40.238454
O     14.243698    27.396073    30.101000
Ca    21.153721    12.570117    23.457459
Si     2.430075    43.251629     4.635176
Ca    45.555352     5.451784    35.968443
O     40.593600    35.820969     0.452127
Si    17.325109    21.959488     8.860915
O     31.927719    21.610428    38.009642
Si    11.395477    39.451687    29.817800
Ca    22.040888    26.245223    38.029495
O     27.188578    10.982236    31.300429
Si    10.889689    13.658596    22.924830
Si     0.583173    37.227480    24.329346
Ca    38.942894    23.560002     2.878735
O     22.767719    18.067090    11.517382
Na    35.438446     8.454639    45.771544
O     16.017067     8.808828    30.188466
O     41.705007    35.605596    37.289301
Si    11.617101    11.448279     7.541290
Si    45.448933    23.417919     6.729584
Si    42.013471    35.660969    12.651976
Ca     9.630411    37.326923    15.988151
O     29.472388    40.155852     5.301367
O     23.575909    44.736800    25.542781
O     20.588247    10.713189    27.082089
O     14.617413    43.054120    14.122124
Si    33.332818    20.922999    16.184198
O      5.839044    44.509188     8.497696
Na    20.661370    28.321333    39.029075
O     42.665340    21.886855    34.879574
O     23.588045    33.701678    42.160062
Na     2.624734    16.765899    42.827932
Na    33.260404     5.700745    35.877139
O     25.156656    36.302899    15.537489
Na    41.757236     5.896959    24.361846
Na    14.439654    22.702604    43.540711
O     19.390884     9.252368    39.420653
Si    34.192680    36.616315    26.653817
O     26.345301    22.823681     2.765964
O     26.982319    18.998499    18.973254
Si    19.078022     6.398654    26.884755
Si    24.209224    22.944021    24.774357
Si    13.554531    25.922004    29.082319
Si    40.537281     5.336250    34.252425
Na     0.913890    26.791277    21.929724
O     30.022120    13.078262     1.714482
Si     9.745175    35.144605     5.561022
O     35.929741     4.909656    44.788976
O     24.760315    22.575171    32.954886
Na    16.041464     6.235647     7.905213
P     23.500736    19.536397    12.036406
Si    10.627163    25.935997     2.984511
O     28.173691     7.791534     5.780747
P     35.864096    37.712456    14.425581
Ca    25.422919     2.999318    20.935271
Si     1.444750    18.539940    44.201289
O     16.080474    13.418792     6.808373
Si    24.048410    40.105659    21.643512
O     41.289963    15.960334    26.385611
O     11.204240    18.762923    17.091112
O      9.697612    38.381206    17.990667
O     13.835880    24.799206     5.680104
O     26.525377    15.624385     0.758920
O      3.658973    16.941004    37.154631
Na     3.599681    20.056038    20.790057
O     12.116602     3.807192    11.063595
Na    35.018810    35.932190    17.737386
Si    43.250065     1.162592    25.964676
Ca    26.726129    13.417993    27.337071
O      0.004473    31.175851    27.725827
Si     7.658077     7.758886    39.111035
Na     3.303221     6.754819    28.814073
O      5.450358    22.568548    12.059981
O     31.457142     6.622350    11.130942
Si    41.738537    35.057049    46.383388
O      6.043187    41.106183    39.811984
O     44.819394    38.387500    22.628577
O     24.594757    23.742183    26.118382
Na     7.687783    35.033905    45.109318
Si    38.566668    14.513271     6.728389
O     10.086197    24.488514    39.432009
Na     6.157922     9.479545    23.643589
Si    18.431888    19.483380     0.077666
O      5.663554    17.255787    43.233136
Si    29.639202    45.915640    29.011967
O     25.316887     5.983836    34.613413
Si    34.715622    27.627074    30.559073
O     32.502741    40.571336     2.690811
O      1.879269    11.247667    27.552482
O     31.729218    28.568577     9.672820
O     24.770569    19.659979    30.499524
O     38.795955    25.376744    38.677943
O      6.823157     9.643853    21.657418
Na    11.666116    18.094573    14.481186
O     42.852740    38.216076    40.799967
O     45.177113    33.684989    41.336617
O     24.119472    46.309307    45.615381
O     43.143909     6.715965     6.562896
Ca    42.767065    34.931518    24.543970
Si     2.590650     8.167373     2.496487
Ca    45.508213    37.313740    21.309470
Si    31.216176    30.656279    31.001976
O      1.729696     1.455592     0.175218
O     43.621232    42.831470    37.236235
Na    38.097884    27.389682     0.279014
P     26.743055     7.182391    34.596464
O     21.597991    17.343775    18.326185
O     23.224977    12.288800    42.453742
Na     4.285135     8.036207    36.973177
O     25.468527     9.732866     7.719840
Si     8.041986    41.634541    21.978200
O     28.069635    45.627235     1.744038
Si    13.883877    44.374776    42.854401
Ca    18.213723    22.679746    23.530689
Si    37.507954    36.453446    30.046702
Na    17.709669    28.273844    41.598448
O     22.733241    43.442046     1.273045
Na    29.865626    28.768719     7.151727
P     24.090992    16.126556    19.701802
O     17.658261    41.652499     0.102883
O     25.513895    29.095169    12.069796
Si    22.175218     5.575388     6.271137
O     27.035661    23.072082    19.158354
O     42.821359    38.570432     0.179041
O      0.579020    11.906439    12.713259
O     25.312196     7.708154    35.712420
Na    44.577177    36.169502    46.551006
Si    10.063138    27.394482     9.142222
Si     8.669355    21.691623    13.535618
Si    21.346677    11.234545    30.155945
Na    46.441772    14.289038     7.042844
O     34.444363    39.920896    23.031619
O     37.421714    13.390781     6.873977
O      5.338360    12.692276    12.958244
O     38.617264    19.890358    13.123548
O     23.590376    41.809167    36.545965
Na    45.731805     4.039796    37.873138
Na    17.581727     0.787681     5.007063
Na     6.344852     3.124052    42.072364
O     10.214691    18.173923    20.418495
Si     5.173754    29.002220    11.300609
Si     6.283872    17.087477     3.141151
O     24.089922    20.058183    46.258928
O      3.339296     8.899115     1.273301
O      6.657562     3.463469    20.468939
O     17.785429    21.981651    13.312647
O     27.273587     6.747089     3.909816
Na    28.231547    14.120234    34.009454
Ca    21.026290    20.383985    26.746289
Si    34.849850    29.463457    39.804433
O     40.799640    32.266958     6.077498
O      2.492006    46.750721    13.988684
Si    45.675173    14.887015    21.569131
O     14.846708    24.002221    25.835964
O     11.018114    32.398621    28.939548
O     46.464568    22.156861    22.760165
Na     7.938723    38.523027    26.696633
O     41.448645     5.768170    42.362924
O     15.423784     4.633102     2.538674
Si    34.775596     1.082182    45.794921
O      4.809907    29.586813    18.739992
Ca    36.952324    20.119747    31.609264
O     27.016624    46.071250    15.838513
O     16.961828    12.748263    29.644327
Na    45.576061     0.678764    26.059603
O     26.328590    31.305529    29.801849
O     15.494062    10.678662     1.495772
Na    23.419661     1.208694    16.501540
O     33.121286     9.615169     3.841671
Si    20.107592    20.227246    11.833553
O     46.314177    26.912896    10.773110
O     28.123519     5.454742     5.578023
Ca    14.902856    37.232085    39.030697
O     46.668247    32.843085    21.542053
Na    30.433447    35.707590    21.583778
Si     7.731034    11.843875     7.497234
Si    25.089669    45.149138    45.063272
Si    18.448525    34.504219    12.040130
O     18.604681     3.525172    16.876275
O     25.104545    24.395035    23.905828
O     37.169000    24.723389    45.512455
Si    39.910686    10.940534     2.726616
O     22.154535    21.185006    36.405592
O     25.972092    16.007786    26.585682
O      7.871089    30.472253    15.490537
Ca    43.174405    26.164841    43.761881
O     32.812828     4.505565     0.454342
Ca     5.734168    45.569345    21.567045
O     18.090900    12.728291    23.575906
O     43.679019    32.807891    43.295264
Si    39.451059    42.213940    45.811105
O     32.415733    14.600979    40.648012
Ca    22.072104    17.258836    23.855737
O     24.741829    28.345325    14.471034
O     36.671935    46.039177     4.713142
Si    10.766306     1.749655    25.948515
O     45.241685    31.563829    23.355007
O     41.625042    23.323332    36.790227
Na    10.620710    43.702900    27.898419
Na    20.400320     2.479230    33.347854
Ca     6.583418    15.224354    26.607445
O     19.924941    26.712074     6.550341
Na    21.128221    30.013038    13.775068
O     44.494503    46.633122    42.527423
Na    15.433489    44.556331    31.467556
O     40.382169    37.492764    10.937118
O      6.017482    20.657431    10.363254
O     34.729089    25.172398    34.848547
Na    34.765502    14.879481     1.917098
Na     2.772691    28.633890    17.807846
Si    18.009293    29.910144    12.461560
O     30.195299     5.819277    42.097509
Ca    40.947459    23.937321    46.260597
O     39.599181    24.536442     6.021296
P      7.042957     4.134267    31.529758
O     46.692787    18.177212    39.944306
O     35.833693     6.529104     0.364621
O     18.837826    21.519293     8.008644
Na     2.687481    36.572714    22.616909
Si    37.760761    46.707745    13.859820
O      7.839155    37.635933    12.164242
Na    22.004911    29.228394    17.981067
O      7.398409    22.731990     0.679222
O     26.727151    22.447947    31.176824
O     14.659195    20.384697    12.366727
Na     7.043714     5.827127    28.418401
O     29.612288    29.889026    20.412570
O      1.159730    33.243021    40.358641
O     44.600842     4.523290     6.051822
O     35.847543    26.871297    31.419105
Na    16.192758    20.487759    39.120631
O     44.304357     1.266252    34.387371
O     37.608731    15.487904    32.134951
Ca    45.537196    36.492231     2.371170
O     16.062110    32.557936     2.105280
O      8.153659    45.049211     9.141445
Si    15.753606    28.357476    30.794849
O      5.237140    23.008703     9.467925
O      0.682071     7.088691    31.101953
O     21.451060     6.860069     6.917117
O     10.870608    44.410889    10.407251
Na    28.640238    15.571992     2.066293
O     44.914698    22.399067     8.031191
O     41.320968    10.611617    27.657168
O      2.590052    16.095640    34.390287
Na    42.025471    44.183195    38.327735
O     25.453950    38.135651     1.455096
O     41.320886    24.099815    34.354190
O     35.325152     3.120098    22.133849
Ca    23.804545    24.758726    41.685908
O      7.269031    14.407475    30.324556
O     27.255036    28.795953     4.158905
Na    21.406602     9.587710    44.839038
Si    21.344417    18.067843    16.910726
O     18.574400    11.631656    38.696112
Na    18.269051    43.145947    28.999066
O     21.248313     4.259131     6.250775
O     17.743811    35.210203    42.352849
O     41.091702     5.552141    32.756395
Na    22.577567    19.900185    29.817408
O     23.242568    17.488588    26.203035
O     25.481897     6.955972    15.104527
P      4.807490    22.215143    28.219192
Na     2.809899    32.151579    43.414407
Si    37.340645    12.586295    15.005039
O     24.784668    29.176847     0.570800
O      2.935874    19.816066    14.293739
Na    42.049357    27.198760     8.869522
O     31.023965    32.253518    31.065083
Ca    17.519574    38.681251     0.754390
O     17.335060    28.063599    30.726015
Na    32.961555    18.433578    11.038217
Na    38.699794    16.461585    25.951084
O     31.679460    18.963765    38.416998
O     23.540389     5.274332     7.069745
O      1.804611    15.915342    38.668038
Na    20.043111     9.374472    41.569279
O     28.196626    30.058910    18.498724
O     30.004577    20.672754    35.265783
O     33.505705    13.590762    19.705317
O     45.175216    18.248737    33.612242
Si    21.597613    30.807600    25.927309
O     31.485508    14.404367    38.003146
O     17.586337    22.188205    40.207727
O      0.619357    17.982702    33.278204
O      9.384178     0.570206    44.810676
O      7.812421     9.657119    17.338405
O      2.739251    42.408463    34.129395
Si    23.173114     5.176682    11.805565
Si    38.493873    18.636765    46.317014
O     10.262118    36.670053    26.954091
O     18.065970    37.208642     6.823992
O     13.170632     6.685601    25.029782
Na    31.203392    31.064650     3.578012
O     41.653832    42.381710    22.770514
O      7.295953    16.588001     4.294274
O      6.375363    42.184877    21.339198
O     42.550889    36.156978    45.533482
Na     3.556114    38.669667     5.990969
Na    44.054251    14.334572    32.761251
O     35.843249    39.602315    34.814545
Na    39.168111     5.666609    10.732745
Na     6.334284    12.499953    17.945831
Ca    18.908858     9.873647     3.865538
Na    30.082255    31.412763    41.849247
O      7.330449    29.586379     6.736938
O     10.317288    19.652365     9.711193
Na    10.106867    11.931809    31.643102
O      7.683801    41.134990     2.663408
Na    28.893038     8.103650    27.700566
O      2.670073    28.688875     1.111228
O     38.219047    34.966653    20.338271
Ca    31.752755    29.135281    36.380177
O     33.083933    43.775167    37.341059
O     30.218334    31.731894     0.704339
Si     2.415861    28.337008    37.482509
Si     6.868305    40.256660    38.494668
O     41.127311    28.792724    25.706945
Si    27.316225    30.391059     3.949166
O     25.829384    31.007567    23.766950
Na     8.435066     3.277562    23.485614
O      9.571689    34.332144    26.061620
Ca    38.764308     6.247265    40.883767
O     24.084314     8.647911     5.764778
O      2.285914    26.794913     5.887800
O     42.757316    34.288306     0.598315
O     43.105074    20.795326    10.215088
O     11.533388    15.721479     8.325810
Si    13.784673    31.035242    39.108271
Si    26.489519    25.764082    38.748250
Na    34.180793     6.899945     7.758107
Si     3.464021    20.897094    19.129147
Na    18.044462    44.776126    38.228514
O     37.212098    24.555075    28.484464
O      3.490841    26.966447     8.160778
O     22.613162    17.668100    43.627912
O     10.082644    40.355632    30.044632
Si    34.301668     1.503501    26.656113
O     15.971969    18.195802    11.743502
O     16.333251     8.661180     7.927619
O     31.355230    27.233019     7.769759
O     39.942572    11.533979     4.222913
Na    10.866065     8.493105    14.319941
Na    21.089581    23.849529    31.478891
Si    26.537569    18.577216    20.811849
Na    16.692821     3.178372     8.577502
O     42.244862    26.795697    31.369539
O     24.832299    10.053823     0.419571
O      0.870332     4.316325    35.377300
O     10.226178    25.899514     8.567254
O     32.984424     5.180040    22.871140
Na    29.014804    31.913693    39.884707
Si    26.459179    32.830194    30.302291
O     44.838426    38.654641     1.866791
Si    16.873852     8.247535    21.862622
O      3.411125    29.097625    36.471070
Na    21.950518    38.406949     9.179115
Na     4.783350    43.989757     3.004805
O     19.459025     1.791256    30.007435
Si    16.920714     4.099081     5.518725
Na    21.276456    46.004183    18.968491
Si    18.375844    43.111824    14.925836
Si    43.207600    27.076760     0.216005
Ca     6.702591     4.212182    24.863808
P     36.014457     4.361955    30.689572
O     26.438203    22.147005    44.348317
Ca    33.143907     2.689868    23.105611
O      6.711875    42.224325    14.044518
O     33.155268    27.119974    24.587043
Na    37.049165     5.050450    11.589730
O      7.019811    18.504450     3.347738
O     16.628863     7.379157     3.963102
O     18.636950     5.368461    25.728789
Na    45.132687    18.347846    42.615659
O     39.369939    43.069807    19.423823
Si    44.968323     8.345099     9.331883
O      3.635410    37.640422    44.286362
O     35.960196    38.857007    24.877849
Na    37.005039     5.158692    35.662041
O     10.760025    39.742658     1.116177
Na    40.848186    29.756475    32.528087
O     40.237319    41.079830    24.539422
O     42.429422    39.540704     2.611602
Ca    23.383608    26.029567    31.976643
O      3.406653    34.294944     2.775613
O     14.890130    34.849993    36.382066
O     39.899138    38.864621    16.606639
O     17.139433    32.691927     7.455341
Si    40.252829     6.177989    28.732398
O      7.851829    45.243632     7.010271
Ca    44.362442    29.781045     3.433048
O     22.411138     3.653546    35.473101
Ca     2.801310    23.411113    26.942313
Ca     7.524887    15.617580    34.373183
O     43.872921     1.941351    27.228672
Ca    17.561781     0.231918     1.316643
O     16.197607    32.446635    46.417671
O     12.852271     6.033433    12.541821
Si     5.740960    38.868241     7.168573
O     36.284992     1.086298    46.355105
O     38.099342    31.006944    35.179235
O     44.247594    35.076325    17.893141
O     19.003205    19.276880    30.938138
Na    25.968203    28.308934    45.694910
O     14.954854     7.787993     5.980628
O      9.999644    22.416560    12.990734
O     22.502181    11.029119     1.103553
O     36.614010    19.131107    14.210254
Ca    32.502295    31.464249    14.189325
Si    21.731446    17.205603    10.250715
Na    19.301836    42.363720    18.500329
O      5.272704    10.839285    11.388784
O     25.370126    11.094438    43.352256
O     18.107096     5.643285    41.289230
Si    44.484057     5.540830    39.776494
Si     3.795290     0.739171    22.317010
O     21.819024    42.880185    26.139226
Si     4.892483    42.275678    40.479809
O     18.249521     3.019611    41.623699
Ca     9.729593    28.515076    24.733457
Si     0.651752    10.740212     6.164865
O     22.495953     6.131795    10.700434
O     24.784617     9.180861    44.683087
O     37.701291     4.770633     0.899983
O     27.407024    14.858985    28.459909
O     28.216270    18.845970    34.719251
Si     4.494039     7.179853    24.965836
O     22.804655    33.020071     9.524414
O     18.442133    10.441477    36.641825
O     39.935118    13.916386     7.331028
O     38.547664    45.499395    33.523186
Ca    13.480691    41.036812    27.273149
O     36.623031     3.323533    10.094534
Na    37.879776    32.455911    16.890764
Si     5.241140    40.348490     0.057666
O      1.136007    12.263538     6.730978
O      6.541289     8.414630    38.154540
O      8.193315    19.845928    30.244951
O     15.068225    44.940285    41.956556
O     18.972296    39.268317    17.471647
O     31.389272    46.224222    13.095770
O     29.342434    31.092492    45.144629
Na     3.127443    12.361047    18.666367
O      3.656976    42.906967    39.362690
O     39.501309     7.653301    10.747243
O     23.430286    45.937040    31.296539
O     42.954677    31.293187     5.016219
Si    35.183800    23.578675    35.087324
Si    26.711506    46.489551     1.807260
O     37.488907     4.575963    30.672270
Si    34.315092    35.074115    16.204263
O      7.957884    40.343637    37.152657
Na    21.624189    38.230204     3.681537
Na    37.631756    31.918217    20.827490
Na     1.519812    42.186654    38.473711
O      0.594104    38.478265    30.184069
O      4.364861     8.610268    24.238287
Ca    40.054296    40.660867    26.747945
Si    15.215145    42.513791    24.764835
O     27.077388     5.088732    30.256612
Na     3.112846    44.946080    33.954786
Si    18.853462    26.274312    33.661719
Si    17.640608    18.431009     6.131496
O     16.531712    38.895549    39.184698
Ca    28.984488     7.064017    19.178777
O     34.333052     2.588331    45.437476
Si    36.108653    14.542585    32.159696
Na     2.472047    11.192882    22.808230
O     39.068923    27.361536    24.965077
O     44.600503     7.844031    13.806163
O     41.377981    34.155884    15.768782
Si    46.258301    26.000751    39.240365
O      2.533468    36.014546    10.759473
Si    43.634242    37.617155    21.857808
O     22.765941     8.579475    23.035284
Si    38.817103    45.639325    39.384636
Si    45.990987    19.607907    24.065255
Na    40.878891    37.730580    46.206178
O     36.709497     4.871757    24.148350
O      7.625238     8.427352    25.222545
O      0.349607    43.149481    22.838981
Ca     7.162286    33.750206     4.824621
O      1.175081     4.135430    23.740216
O     28.224249    34.770208     4.783634
O     24.667043    44.794468    40.052551
O     28.794129    16.841837    32.301991
O     43.313603    22.174167    25.351056
O     19.009249    45.571587    34.100433
Si    14.832148    41.623106    27.771384
O      3.795942    41.061380    14.844229
O     40.077661    14.655952    39.317189
O     17.862915    40.268910    37.367074
Ca    26.343129    42.003121    46.516440
Si    22.331285    35.609546    42.245494
O     41.098845    33.952921    45.401657
Na    21.660360    28.306367    11.476725
O     44.824967    27.236671    31.250649
O     36.222158    12.829953    39.751058
Na    17.642332     8.290584    40.863158
O     24.509059    22.699439    16.992431
O     25.099181    33.714385    25.776907
O      3.512604    21.803419    28.830628
O     13.627218     4.461254    43.568628
O     41.278093    16.170638     0.584849
Na    19.885759     6.822736    35.444728
Na    36.942892    39.763346    19.528504
O     41.472924     4.283286    35.032130
O      8.455366     5.429594     0.001690
O     32.854962    33.370229    33.355608
O     14.602214    18.585548    33.243866
O      0.906327    28.466319    36.937819
Na    31.545730    46.000509    25.963931
O     37.121676    35.400457    39.575538
O     45.716164    22.242447    38.062685
Ca    45.582603    41.885419     4.919562
Si    11.071732    11.662987    26.714559
Ca     6.191980    23.028115    41.566217
O     14.209746     4.356016    25.737945
O     37.084818    33.639609    22.239650
Si     0.187422     0.775380    46.443103
Si     2.065916    18.765763    15.149388
O     43.044907    40.321387    36.898292
O     40.710306    14.595131    31.757961
O     44.353893    11.843514     2.999723
Na    31.385308     4.928851    20.714613
Na     7.184006     0.380364     9.998247
O     19.447301    18.450539    34.590897
O     21.792987    12.808808    13.968547
Si    28.205219    19.294534    17.499283
O     28.144021    35.284251     7.372896
O     15.872057    18.765639    30.954713
O     17.344419     1.950311     7.330985
O     17.183257    29.710992    11.094043
O     34.019667     9.086125    14.511535
O     34.715623     7.526267    38.159438
Ca    40.559954    37.818568     8.396079
Ca    12.018600     6.663828    27.253151
O     44.666240     1.616189    36.727948
Si    40.171633    42.678313     9.921394
O     35.965328     1.111420     6.509464
O     23.704143     8.442398    38.559839
Si    33.941715    26.513704    35.468763
Na    15.978237     4.584319    41.214697
Si     8.096586     4.289472     8.583209
Ca     4.020600    31.988349    11.877268
O     26.670972    30.840098     2.544135
Ca     3.552549    25.644133    27.737335
O     21.445185    36.155771     2.856108
O     22.552317     5.944442     4.750053
Ca     6.397375    12.379247     1.796310
Si     4.447297    33.939189     3.951453
Ca    26.193812    14.651059    24.697356
O     43.400013    14.695247    25.799087
Na     4.904445    25.219463     8.848260
O     44.598555    35.262395    43.395792
Na     4.139615     9.092402    12.581933
Na    34.614486    44.973355    26.696002
Ca    17.873374    28.148817    32.574888
O     20.350023    38.658185    32.302445
Na    32.029029    33.855612    37.617447
Na    28.897623    31.287767    31.873643
Si    15.928244    23.327930    24.852241
Na    14.158377    27.759096    14.733529
O     28.364250    15.763200    29.970889
O     31.968206    43.750741    12.518605
Na    34.610604    40.570232    25.235051
O     30.308173    30.059039    29.814147
O     29.491103    15.312673    35.696391
O     34.438875    43.270358    15.469028
Si    15.828429    39.493332    22.568233
Si    43.341773    43.622850    18.308715
O     18.300886    34.037075    10.506481
Na    17.995078    21.974266     1.170202
Ca    12.403199    37.889972    34.988554
O     34.187528    37.311145    22.162442
O     33.412524     8.197700    32.758713
O     17.641564     0.984287    33.562681
O     26.904767    24.196548     4.958513
O     30.794294    16.316617     9.094046
O     34.244460     0.392180    27.819639
Si    19.112042    20.180639    29.610179
Na     9.276504    13.980656    21.060169
Si    12.433811    45.324999    36.419464
O     11.801302    13.641711    11.955125
Si    30.999848    44.691167    13.396091
O     17.022419    11.542983     3.189400
O      6.769110    44.404339    17.280773
O     15.816876     5.205632     5.087843
O     19.201456    34.494089    26.772784
Na    22.224110    29.859256    40.468339
Ca    30.486174    46.376076    31.402417
O     14.219703    29.197472    18.486015
O     10.139473    13.690001    24.349010
O     15.001514    14.781207    22.462130
Si    41.531408    37.962828    16.347871
Si    27.174203    16.221891    27.635057
O     19.825640     4.613408    43.016355
O     27.561406    35.818002    36.609395
O     16.821962    34.134778    40.211863
Si    33.704436    45.046030    36.571655
Na    42.986059    16.407152     8.166011
O     22.216191    23.488489    34.499640
O      2.204294     8.004237    42.503526
O      6.620464    28.303625    11.195272
O     33.571172    39.363568     0.569773
O     38.810695    44.308946    16.416895
Ca    37.973564    23.392044     7.104367
Na    34.838873     3.050505    11.494051
Na    24.165550    40.818174    15.984136
O      0.848752    34.954023    12.534876
Na    33.550878    22.876065     1.821134
O     27.765179    46.755643    18.280848
O     20.358548     7.192741    14.618235
Na     0.422176    44.771284    14.052191
Na    41.432481     2.269265    10.906833
Si    22.490504    15.356308    25.040418
Si    28.045661    22.110458    44.431044
Si     2.109859    43.767568    39.165820
O      3.759917    17.307378    26.448026
Na    14.765579     3.403156    23.099355
Na    43.602117    10.512117     1.166209
O     40.163720    17.220019    24.353492
O      4.535688    29.824183    46.104651
O     16.905971    29.669313    24.334183
Na    39.690715    41.821651    38.902955
O     16.431420    22.739777    35.384233
Ca     8.099423    17.806750     2.048927
O     37.821016    37.953996    30.539087
Na    27.975285    37.216425     5.910904
Si     6.469168    36.212990     5.411080
O     17.045911    42.283175    14.556083
Si    33.914295    33.114958    34.540829
Ca    44.629685    32.626344     5.873026
Na     3.032112    22.018388    14.595592
O      1.009271    25.529910    39.500469
O      1.905089     5.794233    38.671995
P      4.690092    36.609788    44.072960
O     27.780366    12.137061    24.050975
Ca    22.053296     8.233417     4.251011
Na    11.750171    12.616552     0.372829
O     39.348888     2.556095     1.104598
Si     3.463420     6.198531    38.687813
Na    31.526580    20.257804    16.058344
O     13.107029     7.161009    44.403689
O     22.340428    17.398719    15.837256
Na    33.298878     2.670238     2.903544
O     35.967247     1.686552     3.952045
O     20.425422    21.111051    29.648460
Si    21.906213    12.133097     2.112589
O     46.213548    13.006748    21.259121
O     32.079278     1.186641     1.075772
Ca    31.902156    30.509777    45.562815
Na    17.735461    42.170403     2.596735
Na    19.499698    41.352023     9.386476
Si    26.050451    36.660186    31.067628
O      8.262962    42.380983    23.833871
Ca    14.123968    18.358958     3.925673
O      6.796339    10.921201     3.645843
Si    39.554974    28.843536    25.364492
O      9.569352    39.114251    35.468145
Si    19.176552    22.420665    40.304055
O     43.907803    14.981103    28.332255
O     43.753729    24.198623    35.411941
Si     0.924408    15.271457     9.250877
Na     3.648344    40.622000    12.927080
O     44.918897    14.785987    22.986855
Si    25.204427    38.311122     4.337878
O     33.659364     5.362160    37.857064
Si    25.519349    25.417394    42.039427
O     40.343716     7.434362    41.392177
O     23.380419     0.173859    35.013658
O     38.981880    26.596352    11.183693
O     31.312864    44.329487    18.838906
O     17.246728    14.985378    28.258804
Ca    33.946428     9.367779    20.698902
P     16.820338    10.495149     2.149541
O     33.187038    19.322595    16.086440
Si    35.776329    29.683562    25.888978
O     10.238501    13.296272    36.431988
O     16.688488     8.712170    23.392934
O     22.010431    14.820762    37.993028
Na    23.830676    32.934891    31.594081
O     13.230029     1.731759    19.767243
O     20.204926    24.704162    35.673100
O     20.888982    31.530001    10.627413
Si    44.885307     4.817076     1.921126
O     24.272789    14.941778    22.540894
O     23.290535    30.610493    10.415097
O      0.502005     5.614655    21.779066
Ca    16.707323     0.917235    19.781483
O     14.270384    27.928549     5.670498
O     13.477759    15.588051    12.140157
O     21.237232    18.550956     9.523150
Na    35.897679    37.386269    32.221254
O     19.603270    41.749893    23.582694
Na    28.853939    20.243704    12.762151
Na    44.709172    46.678308    32.382384
P      0.644319    11.611856    21.351126
Ca    22.538106    22.100921    17.250968
Si    39.380685    15.442363    32.084160
P     13.077616     1.498567    28.732696
Si    11.930462    29.251432    14.988254
O     45.507360    18.505757    22.995924
Na    11.075211    45.169981    21.799726
O      4.017135    35.280991    44.033874
Na     3.401806    31.457620    46.721695
Si    24.463119     8.816902    37.190240
Ca    24.245808    24.458824    33.561776
O     16.751035    33.578028    26.816171
Si    27.425996    23.069452     3.933781
O     19.744210    22.186059    41.792284
Si    40.131528     0.210455    24.067420
O     23.211543    11.156044    44.853193
O     39.846304    29.626974    36.585840
O     39.797060     9.334603     2.739839
Na    16.647219    40.966844    24.763880
O     18.151974    45.492919    28.507621
O      9.258143    43.111492     3.305397
O     32.816142    15.019914    14.370575
O     45.107937    32.983113    27.433956
O     22.498547    38.843925    11.372548
O     42.197018     8.756508    14.208915
Na    44.032514    43.353817    42.058154
O     35.385601    38.381060     5.516816
Na    25.624098    43.634368    20.427261
Na    37.820774    37.795660    34.590243
O     42.926990    28.157091    27.373575
O     34.136063    33.482546    16.368450
O     12.169367    27.854270    15.751773
O      9.145064    19.734920    22.407021
Na     9.173500    23.452151    18.763206
Ca    29.973059     3.587314     9.414597
O     38.282743    30.905401     6.733195
Si    46.524459    40.823051    41.617473
O     18.163107     7.294033    21.718560
Ca     5.172396     4.880502     2.447815
O     35.452529    39.206445    13.340514
Si    19.445862     1.946150    23.102228
O     26.241800    42.403611    29.577238
O      7.160680    28.237742    46.598927
O     40.015122    21.702198    11.789710
O     32.150594     6.683703    24.866428
Si    30.035906    32.287692    45.970882
O     45.788754     8.651432    24.882629
O     11.679477    34.643864    44.995693
Ca     8.960227     4.211888    44.910885
O     13.743893     6.749446    36.919405
O      1.170951    12.136336    34.640858
Na     8.312578    31.013292     4.245912
Ca    18.884268     6.065131    16.366808
O     39.814837    43.126312     5.543255
O     24.222083    16.874199    18.419639
Ca     2.439260    19.956804    42.630923
O      5.081345     1.382777    37.696201
Na    39.236630     8.733762    44.622100
Si    12.747920     5.178187    44.710968
O     38.445519    34.041162    33.316184
Ca    24.011249     4.078751     4.588297
Ca    42.166361    32.365714    19.829699
Si     0.221738    39.909114    28.954041
O      0.766428    28.803076    12.118034
O      7.671079    22.804125    14.133854
O     46.506944    29.754319    42.804224
O      3.172189     6.342533    31.190610
Ca    22.038554    26.318928     0.932833
Na    33.428298    37.656092    44.310599
Si    14.826898     1.686393    19.567111
O     24.709095     4.476693    32.451171
O     39.363974    27.547721    15.639674
O     21.704746    45.257363     2.891672
O     43.440990    28.485249    40.611937
O     24.958401    24.416025    31.167839
Ca    19.622141     2.180998    25.878212
O      8.703811    14.836370    37.857954
O      9.346992     3.239076     7.478405
Na    13.898710    23.667395    22.317075
Ca    19.133169    32.153707    14.979578
O     27.522697    24.113304    11.596028
Na    10.431001    34.311850    40.561659
O     25.001249    18.977636    11.949727
O     38.671794    11.598897     1.936802
O     37.386213    35.450109    31.299935
Ca    30.780329    22.134104    14.840217
O      0.962845     6.075692    43.904290
Si     9.436646     5.842245    23.595155
O      6.122217     4.320126     0.444629
Si    11.538470    34.444622    31.706379
O     22.613012    24.009485    15.705829
O     14.887326    26.988279    19.741116
O      1.061213    37.686455    25.796629
O      4.644654    13.885794    39.042073
Si    36.212312    31.391152    15.603074
O     39.363466    11.672437    29.102108
Ca     3.460991    26.030784     3.772938
Si    27.482087     7.978038    43.264642
Na    19.528860    17.626949     8.308915
O     35.346242    15.393443    33.294099
Ca    26.253232    19.868744    46.263826
O     31.329249    38.763555     9.402929
O     23.080238    30.975822    25.322641
O     41.610996    16.388318     3.402916
O     39.302624     6.896939    19.010188
O     46.673471    35.109886    39.017177
P     12.903996    19.369638     1.985610
Si     9.186564    14.512756    36.356513
Ca    15.631793    44.172455    21.872199
O      7.576421    19.642121    26.456656
O     29.070148    44.410065    29.981705
Si    26.049031    13.856900     7.940953
O     39.397760    44.306175    38.693515
Na    43.372281    29.923965    15.833486
Ca    33.158803    43.712943    20.065954
O     24.581833    12.644000    37.066593
O     10.511341    23.578445    30.694966
O     37.255101    13.691184    16.172944
Si    43.550671     5.599522     5.476525
O     17.892709    23.449680     8.638973
O     28.435659    35.541544    38.507840
O     14.839557    42.558965    26.389974
Na    25.101621    20.056097    43.627865
O      1.354358    26.726951     1.733973
O     17.947447    25.015253    12.206822
Si    24.423853    10.023298     6.529711
Si     4.021095     8.244532     8.200345
Si    33.526454    21.015070    12.731788
O     16.723149     5.323900    33.826366
Na     1.884303    20.073154    11.302259
Si     7.215284    44.010856     7.827077
Na    30.068198    24.771398    22.764600
Si    25.681568    20.175925    29.276421
Na    16.439932    12.937244    10.312627
O     23.464661    12.670601    22.775271
O     19.323613    14.664014    28.672044
O     36.985962     5.113462    21.811225
Na    12.192699    16.341566    34.952010
Si     2.951770    45.305168    14.528213
O     33.157403    12.972429    43.356570
O     12.964291    32.365004    33.521780
Si    24.822243    28.341247    40.581125
Si    21.792501    24.441666    35.726033
O     38.430615    33.424042    35.942160
Ca     9.136063    23.979013    25.500240
O     45.690704     9.003634    10.611179
O      5.973220    34.488656     9.987968
Ca    12.394225    29.822336    36.762828
O     32.875836    44.520290    16.788576
Na     4.769165    33.955476    13.413303
O     43.323245    31.339954    11.836157
Na     6.175811     0.877495    45.900778
P      8.352694    42.272447    25.697900
Na    27.119476     5.302999    38.906056
O     13.016611    42.505663    10.249232
Ca     5.054295    27.803605    26.507130
Si     8.855870    13.377435    45.100371
Si    21.548588    33.277088     7.036209
O     30.780717    11.350261     3.846102
Na     3.256716     1.696582     1.864677
O     13.068087    42.915886     8.117683
Ca     9.174776    30.421440    34.055343
O     25.039692    39.744038    35.932648
O     32.333386    46.284588    20.058074
O      0.073896     3.556466    31.440842
Si    13.004624    14.249972    20.011541
Na    30.101016    44.222606    26.890950
Si     0.342072    13.002124    32.878424
Si    33.229140     1.242949     2.313031
Si    43.628516    45.869585     3.256850
Ca    25.132625     1.181206    22.784701
Si    30.358437    31.343069    35.678314
O     40.242523     0.631797    20.273765
O      8.663820    41.618853    35.558969
Si    27.595792     4.445120    28.815921
O     16.192373     3.170922    12.952906
O     18.406702    44.547688    14.198207
O     26.141897    42.067706    35.825630
O     19.389962    20.989149     0.377498
O     14.844279    40.334438    28.736416
Si    13.152323    30.838897    33.999003
Ca     9.330753    39.698697     3.199069
Si    17.819034    14.100669    29.476119
O     35.980185    30.088322    38.843191
O     42.192513    28.100648    38.328961
Si    28.094231    10.118201    19.362557
Ca    34.720279    37.640256     9.900529
O     12.343450    26.550525    28.227717
Si    43.245072    38.469343     1.728992
O      6.168285     5.158523    30.432284
Ca    10.713825    15.953109    20.177455
Si    38.684017    40.057764    17.409376
O      2.189184     5.599026    41.612109
O     18.018493    45.764899    42.390018
Si    38.269405    34.682730    21.922238
Na    43.121091    18.007540    46.687042
Na    22.664926    42.190420    46.132302
Ca    25.442647    43.205081    17.925626
O     11.981508    39.661692    28.333022
O      5.998205    19.690182    42.351388
O     22.305837     6.151617    23.833297
Na    11.308406    12.187922    28.928769
O     15.268241    41.159497    23.381325
Ca    11.585586    42.585491     2.324445
O     45.503902    34.808155    15.870791
Si     7.616932    32.014581    15.876191
O      6.906853     5.474277    32.212998
Na    35.030981    10.412388    28.668088
Na     4.104600    20.945261    43.775507
O      8.586800    34.805794     9.818967
O     44.057553    34.475661     2.772404
Ca    27.837040    21.864133    29.157247
O      7.229533     8.523954     4.683583
Ca    39.851434     5.546129    37.265551
O     38.464320    42.140051    36.243846
O      5.377035    36.845840    42.772004
Si    19.879592    37.980159    23.652740
Si    24.153005     4.452129    34.038693
O      2.437026    39.001496    13.929951
O     18.177980    23.262946    33.853292
O      3.604708    45.219351    17.828247
Na    19.132512    26.128144    12.906715
O      8.915440    14.784532    28.525016
O     31.942026    20.613926    26.774435
O     42.896509    42.451170    19.319163
Na    11.632003    44.075777    24.115118
O      7.089378    18.430396    32.626625
Na    17.660695    39.373908    20.051522
Si    30.111326    38.477692    20.736936
O     11.710493    19.309969     2.875605
O      1.509097    11.967472    30.076132
O      9.057293    26.402170    25.547309
Na    43.382859    33.837429    16.618677
Ca    38.063471     0.959317    11.963195
O     14.280140    16.688912    31.436127
Si    38.339601    24.602016    46.611118
O     27.756409    10.132975    17.726165
O     38.651049    20.715151     5.982153
O     12.540095    31.184700    38.097930
O     30.666392    44.983330    14.943847
O     29.826881    29.824482    35.736979
O     45.823030    14.068439    26.727399
Ca    33.232750    28.813421     8.286806
Si    20.405009    36.226458     1.629268
Ca    38.200980    12.900848    19.716689
O     37.149387    30.162374    16.054841
Si    39.161453    23.109282     5.418215
O      5.168592    21.316734    27.086688
Si     5.792957     1.914947    36.353627
O     27.811134    22.600300    13.739492
Na    37.860736     9.919747    34.598372
O     35.477206     4.307006    29.300889
Si    16.203598     0.890161     7.739285
Si    10.656582    35.511735    25.907765
O     17.087960    21.695761    10.431363
P     20.796508    20.710621     3.357702
Ca    17.038793    15.863825    21.361528
Na    19.141875    35.168472    15.299338
Na    43.778699     1.011726    46.144373
Ca    25.701360    16.959043     9.810680
Si    11.156284    39.723890     2.676538
Si    33.007665    14.112491    42.229654
O     22.189204     7.819504    35.527579
Na    38.646974    45.895269    14.822078
Na    17.753442    30.846468    30.991107
Na    41.676475    19.766179    36.012521
Si    23.801076    42.421264    19.609245
Na    37.555204    25.010326    31.091131
Na    32.710485     1.215767    13.314769
Si    17.446743    26.426723    12.642943
Si     4.695154    12.371604    39.586849
O      1.956348    44.762272    15.671234
Na    18.835041    44.050044    41.081513
Na    43.785710    19.311257    11.878653
Si    42.166645    46.044840    45.941864
O     12.259905     3.895868    20.128724
O     39.304875    42.838742     0.521194
O     19.696166    35.519524    12.108306
O     18.394376    32.986596    24.823489
Ca    27.773046    43.858154    35.454387
Si    18.590859    27.346845     5.988574
O      9.870916    40.986002    18.165205
O      6.389087    25.769556    15.768413
O     33.964249    27.220409     9.936219
O     40.629467    33.447578    36.320729
Na    33.068348    25.101199    27.939783
Na    45.394607    40.100648    21.025209
Na    23.222220    15.471761    41.301097
O     11.739512    44.423267    17.247147
O     30.040248    36.827759     6.965376
O     11.174699    43.598653    19.956375
Na     3.405462     4.874618     8.501301
O     44.142332    33.352805    21.727687
O     27.194375    37.795585    37.725773
Si    45.650121    18.691459    32.055064
O     19.512257    23.909532    39.791537
Si    13.785550    35.767195    41.000707
Na    38.947254    16.225597    20.567635
O     39.867931    31.173692    19.760968
O      0.703878    27.942974    20.007160
Si    37.636023    18.121013    13.484100
O     35.940939    22.532148    27.499707
O     43.220038    28.848141    32.603241
O      7.957806    21.748347    19.956426
Si    28.132791    22.737508    12.167929
O     19.774078    10.545602    35.125254
Na     4.961393    43.188918     7.221571
O     25.621921    19.740042     1.607469
O      7.120229    35.280894     7.717587
Na    18.072249    32.629539     3.489385
O     39.328635    29.914692    24.184028
O     25.146028    14.365110     2.689102
O     37.409239    16.668028    14.139466
Ca    16.749094    27.276008     8.107610
Ca    21.220530    23.649801    26.843947
Na    15.590424     3.347898     6.469529
O     25.455785     5.111201    40.219025
Ca    37.532163     9.956840    23.033961
O      5.690466    45.483562    31.868365
O     40.578374    33.914569    38.916041
Ca    20.098605    23.707163     9.644825
O     32.237730    22.302917     3.504838
O     35.304382     2.320758    15.427715
O      7.658092     6.170566    38.847706
O     14.844782     7.223162    31.952688
O     18.627288    37.434402    19.073273
O     40.718891     2.932494    21.424992
O     26.797269    24.202708    33.104496
O     23.328543     6.033790    13.159562
O     38.035819    41.871305    45.124229
Si    17.346742    38.806373    37.799103
O     23.516098    43.552160     3.775606
O     22.318687    10.675011    10.317932
O      2.897038    17.395706    15.305203
Ca    10.372722    45.583054    18.604093
Si    23.765215    22.892302    15.577652
O      4.769372    29.044727    12.858418
Si     7.909840     9.903846     4.209051
Si    24.874458     8.756513    46.233557
O     25.873791    25.153460    40.309266
O     34.853400     0.074956    34.266254
Na    11.996027    10.571116    12.158441
O     27.230900    19.958270    29.656284
O      2.918965    46.530262    23.251198
Si     7.183940    28.099211     5.596668
Si     8.814286    16.094278     4.527473
O     17.375298    45.603936    32.066353
O     41.789709    41.420551    27.781758
O     41.913119    42.958585    25.335970
Si    14.831480    44.563782    13.605213
O      0.886963    28.809778     9.517120
O     15.595589     7.424400    21.332912
Ca    32.093885     0.962817    36.484448
O     22.778966    32.610547    12.105212
O      4.165798     5.612188    40.012564
O     38.750915    36.030151    29.115055
Na     4.681725    45.777667    24.536509
O      0.563579    35.825883    29.831097
Ca    46.364989    16.562978     9.208342
O      6.561251     6.881524     1.101178
O      7.734340     1.675371    18.795486
Ca     4.636961    44.539734    37.533930
Ca    37.147433    37.835858     7.870957
Ca    16.124682    16.206249    13.950863
Si    44.858873    35.166693    25.293979
Si    36.326728     9.269321    42.587374
O     31.855471    20.641704    40.448605
O     21.939132    29.601072    43.878485
Ca    15.144855    26.189691    24.770505
Si    23.087321    45.404893    17.805525
O     35.865409    12.182079    14.502657
P     43.383816    12.373216     1.850093
P     21.273825    19.358078     8.262099
Ca     8.150563    18.553275    15.867551
O     12.522076    40.605023     1.808818
O      2.694815    45.133610    38.546257
O     34.323526     2.982024    27.292974
O     42.216707    15.605654    23.936494
O     29.393678    39.182499    19.479825
Na    39.805209    37.554202    42.972329
O     20.560749    10.522518    37.399295
Na    19.682968    20.162617    45.460733
O     30.811237    29.998443    32.414554
O      3.292802    18.818319    43.876519
Si    45.931464    28.397161    19.874804
O     14.962912     4.960989    11.337555
O      6.138003     4.166967    44.332994
O     32.844513     1.945921    20.874294
O      8.081621    19.576500     8.239099
Si     8.461309    42.422073     2.088082
O     38.967660    21.692329     8.351244
O     16.276611    23.474746    41.697366
O     30.048497    40.149299     8.095261
Na    17.425499    15.899984    25.959007
Si    37.377888    23.016290    28.040894
O     40.706387    31.138360    12.176542
O      7.339777    25.143054    46.521306
Si    22.901549    46.090277    21.745187
O      9.752966    13.447570     1.315428
O     33.002852    38.972164    11.320167
Si    27.730514    10.661258    29.818749
O     19.943898    21.345107    39.384024
O     21.139879    11.310386    12.650897
O     40.296552     4.667086    29.286799
O     40.055554    46.520019    39.916347
Na     7.721930    20.661851     4.329561
O      5.728689    36.620598    45.141276
Ca    12.322653    38.971797    20.581600
Na    24.383433    15.229544    14.973465
O     26.559860    39.505511     4.712013
O     21.229939    31.259115    41.093497
O      2.179563    29.022877     7.310223
O     45.713706    17.858833    30.646454
Si    32.726081    30.362371    43.988321
O      5.213956    37.965703    12.367161
Si    23.345573    28.982115    43.397949
Na    32.467594    42.170932    43.606083
Si    19.117361    10.177727    27.513032
Si     6.315261    44.138158    18.802374
Na    15.725998     0.121332    13.921431
O      4.987589    11.764638    19.707972
Na    42.963006     5.977063    38.059402
P      8.175132    10.268972    21.696028
O      4.292189    39.394461     7.633605
O     36.599743    21.149467    41.771856
Na    20.964394     4.774087     3.436471
Si    24.350033    20.526358     1.010722
O     30.198133    18.317921    36.380795
Ca     1.714511     0.285014    32.003646
O      9.611069    16.451187     3.174753
Si    44.302843    18.940160    37.832687
O      5.203200    16.127355    34.583056
Na     5.243010     6.297017    45.259851
Si    17.601020    46.141317    33.567143
O     30.867095    38.002680    12.380733
O     28.411123    20.686918    45.088367
Na    32.237131     8.790882    10.766363
Na    31.175252     4.305030     6.987145
Na    29.518244    22.756233     5.601614
P      7.016828     9.483802    30.865255
Ca    20.595070    41.661921    27.035715
Si    37.606100    33.457097    34.559705
O      7.665741    36.069750    24.817228
O     30.572991    35.306145    42.779119
Si    19.078933     4.399418    41.606128
O     32.478798    33.746162     4.803404
O     46.645856    34.538858    17.924161
Si    41.172317    25.076223    29.079045
Na    23.994788    20.260141    32.534422
O     17.634049     8.399115    45.131810
Na    25.157673    44.318449    15.651819
O     45.339569    28.936599    21.271502
Si    41.067893    17.512372     4.728383
Ca     9.475235     2.073943    35.839928
Si    40.900829    15.868913    24.826022
O     17.607258    16.300641    44.867642
O      7.694135     2.159975    43.993130
O      3.290017     6.953546     7.575061
O     28.783702     9.603078    15.229082
O     33.779248    38.222701    33.834266
O      5.581357     6.364077    30.544760
Si    35.595850    36.761486     5.991428
Si    26.598042     6.537818     5.356172
P     18.429372    37.895025    17.670149
Si    36.538398     5.171834    46.627834
Na    38.294637    27.316632    19.251589
O     12.443434    29.154521    13.465241
O     35.454856    36.934713     7.916087
O     30.522711    15.057841    31.342102
O     22.383306    11.862188     3.626224
O     38.773973    14.901861     5.179801
O     45.774349     5.107325    29.594734
Si    31.420278    44.923302    17.346276
Na     8.782701    18.688430     4.043943
P     15.888266     3.331856    22.228386
O     16.555025    16.965750    32.738677
O     29.078345    32.317126    35.746715
Na    26.284902     9.423639    33.999253
O     28.381798     0.781165    22.637028
O     35.687531     3.092492    31.397868
Ca    10.979250     7.895201    20.821894
O      3.175330     2.224950    22.331475
O      4.978520    43.504355    19.999865
O     38.283197    16.327761    40.677878
O      7.421520    34.834930    22.442298
Na    42.725799    10.215217    25.714360
O     24.917503    14.890935    19.600701
O     33.480213    37.051897    28.977519
Ca     5.253743    42.928587    23.541158
O     15.527143    29.932052    30.546811
O      7.937740    14.157013    35.404682
Si    32.978126    36.511974    21.461890
Ca     6.216164    26.091151    10.623516
O     38.164292    15.802157     7.605295
Na    44.998715    28.452571    16.843033
O     24.578310    26.791193    46.675853
Si    13.844425    17.362191    18.933655
O     35.140511    35.667478    37.905672
O     18.519928    17.241100     6.766330
Na    16.085056     9.964032    37.551338
O      6.612142    39.859680    46.136052
O     34.267768    22.441320    12.823252
P     40.197258    20.963199    13.070650
O     11.015980    27.594940    10.424411
Ca    25.104388     6.349599     9.294994
O     17.089411    10.190088     9.957258
Na     9.371391    39.458682    16.568945
O     19.537292    34.871129     1.581819
O      4.069429    14.583578    32.785984
Si    43.961411    41.528141    36.354356
O     24.834873    23.354981    14.466859
Na    12.146074    21.183773     6.661294
O      4.797780     3.047218    35.788221
Na    33.098606    24.242655    33.973237
O     27.036338     1.193742     1.238389
Ca     7.807844    40.250051    14.429750
O      5.213138     8.741327     7.238925
O     15.810254    24.091248    33.243422
O     46.043127    44.997331    22.911491
Na    26.743421     5.904283    14.217292
O      6.196785     8.441351    31.915357
O     45.877423    12.026482    32.525628
O     44.336054    23.626160    23.694239
Na    31.075460    36.367760    45.647777
O     16.448772    10.437262    25.224948
Na    35.137394    25.476856    46.177150
Si    38.789484    37.264357    10.879796
O      3.884910    11.136397    29.224331
P     14.711883    36.194449    35.765003
O     36.249547     9.222556    20.228672
Si    36.788864    15.466437    41.096710
O     25.416160    13.253734     0.379658
O     13.446068    15.003170     6.641268
Na    26.234057    15.309161    21.176255
Si    29.121916    35.114102    37.115559
Si    32.748957    14.608299    38.921889
O      2.170285    26.939069    10.816897
O     10.009564    28.119789    42.175103
O      7.783596    29.130263     1.973157
Na    37.122559    18.292358    40.405075
Na     9.430154     4.865138    26.362624
O      5.472118    15.754806    21.082652
O     27.624705    18.040053    16.673824
O     10.018848    16.775855    15.835930
O     20.298504    12.051168     2.086901
O     16.227774    44.725119    12.820080
Na    37.136483     8.567637    17.681485
O      2.573942     3.861480    33.352919
O     34.853157    38.486912    27.350100
O     21.078838    32.187787    26.573882
Ca    20.232897    34.915843    17.457746
Si    11.507677     3.064630    21.284274
O     39.494455    33.659741    41.506941
Si    32.468233    27.176797     9.342811
O     20.677092     8.110354    24.622384
P     44.518390     0.563624    35.683752
O     16.149769    46.126956     0.013098
O     32.072940    35.886176    22.637100
O     35.140914    23.358634    33.493008
Si     2.379515    35.061124    12.047644
O     45.039511    27.179340    19.314954
Na    38.360289    35.576106    26.802833
O     31.695536     4.672868    32.092644
O     11.015040    16.867010    40.153480
Ca     7.393754     2.964172    30.701004
O     23.091155    29.514066    29.694039
Si    29.675235    16.054591    19.659790
Ca    15.308476    36.747314    22.683814
O      7.458726     0.525442    23.219867
Ca    28.650894    18.156208    29.699833
Ca    42.925377    21.189019     7.830646
Ca     8.722028    21.008416     2.079600
O     24.701812    19.704104     4.727938
O     45.805672    40.942559    40.181798
Ca    43.029611    38.610279    13.643338
Na    18.764640    45.708899    30.528966
O     21.966580    34.310212     5.874298
O     42.856671    40.709861    24.341692
O     28.271452     7.166435    42.119957
Ca    38.492139    30.232637    18.318043
O     32.598004     0.106700    22.699677
Ca    37.226314    26.949891    27.789813
O     27.330954    37.144865    30.220575
O      3.318948    35.643031    13.218519
O     26.319148    36.407350    20.982924
O     42.045546    16.961371     5.882805
O     15.940079    24.132443    23.457710
O      8.187459    14.619046     4.376223
O     24.143689    42.991410    27.379211
O     45.632455    41.523134    42.760414
O      9.503758    45.754467    23.797175
Ca    17.529135     6.138093     2.762833
O      8.563518    32.918641    14.938773
Si     9.463829    14.308524    27.088079
Si    16.579943    45.396162    41.768160
Na    42.078775    13.968562    40.299299
Na    35.421193    32.120308    12.854358
Na    24.605383    37.520389    19.663450
O     16.915914     9.127126     2.732189
O     20.432217    38.449183     7.167354
Si    19.600515    45.187297    27.874832
O     29.494592    17.578946    19.174185
Na    10.750846    15.907437    13.496767
Si    22.441538    31.953611    10.674591
O     20.854518     2.874123    18.057107
O     19.061484     4.680209    34.851955
Si    26.152169    14.214686     1.441243
Na    16.528270     4.984462    22.913550
Na    12.459230    32.663623    26.906221
O     45.830640     8.695767     8.018285
Ca    41.768569    20.514861     4.035292
O     32.425846    25.007631    23.338360
Si    25.525083    35.562270    22.099795
O     21.173210    39.252346    13.182598
Na    45.246163    24.347563    37.101599
O     14.771714    45.570682    14.860075
Si    36.430943     6.292538    25.070033
O     34.833906    25.961876    22.919366
Si    44.578098     7.649920    25.928129
Ca     2.309498     5.096373    26.692867
Na     3.993961    12.336332    15.079794
O     34.762588    27.169338    29.016228
Na    33.997528    44.649392     0.831041
Ca    41.880257     1.318010    21.889992
O     14.230056    37.426784    30.204430
O      7.499949    42.711434    26.838170
O     12.305961    45.229794    34.817375
O      9.156599    36.466845    40.135474
Na    26.275349    23.106501    46.346178
Si    39.439271    45.747210    34.840656
O     44.527305    26.389098    46.368026
Na    10.628271    15.756452    30.611423
Na    37.946609    10.470773     3.806577
O     17.486688    20.454840    45.975293
Na     2.225894    33.351922    36.933376
Na    37.564699    40.133828    31.818463
Na    20.856767    16.469721    10.713239
Si    40.245854     7.842722     0.351078
O     41.847532    44.338924    17.457525
O     26.996512    40.939890    19.222647
O      3.280451     6.199220    24.568769
Na    10.572438    23.581309    35.086177
O     13.992939    45.254464    36.814740
Si    25.910338     5.077709    31.438325
O     39.882018     6.540371    46.243745
Si    14.001113    11.288130    15.081842
Si    17.926531    34.124856    25.861557
Ca    37.271067    27.676902    42.234769
O     17.922380    44.531765     1.119903
O     23.788093    20.346333     7.103887
P     11.303447    28.932599    43.337147
Si    31.258876    22.031527    26.434122
Si    34.830339    38.372202    35.044620
Si    23.000359    24.723470    28.153299
O     26.241264    34.155400    22.415863
Na    22.194005    11.040469    34.672725
O     16.736419    46.148922     7.552504
Si     9.727345    24.267828    37.878104
Na    18.521677    43.340576    33.505044
O     23.055715    10.663959     7.086354
O     23.711575    27.546769     2.009081
Na    14.998444    11.491538    28.336408
Si     6.453663    36.980058    12.656522
O     38.093814    36.075872    22.709907
Ca    35.240407    27.481909    43.207612
O     20.183510    17.960745    44.539257
O     40.602600     6.720687    35.071673
Ca    18.581184    28.266007    10.489159
Na    16.554743    36.673225    29.622287
O     24.006486    35.340062    21.613393
O      1.349525    35.791189    41.091009
O     17.951380    25.178699    34.437542
Si     0.849305    27.859456    10.816184
O     28.701682     9.216757    20.550202
O     25.469695     4.173489    37.836747
Ca     0.889877     3.865930    12.764715
O     19.787639    11.310037    10.403700
O     35.605431    32.088967    16.920971
O      5.732623    25.374565    43.061817
Na    19.936642    34.130940    42.191569
O      9.652332    43.000105    25.737354
O     27.834725     9.060941    29.676526
Ca     3.286553     6.261503    10.263895
O     30.642699    18.594848    33.776128
O     20.243979    39.662870    23.654384
O      9.103360    20.692596    14.721234
Na    38.794086    35.304060    41.881399
Ca    24.314669    20.704888    13.332509
Na     6.109680    31.308813    46.741763
Si     2.363392    40.566374    14.301210
P      9.452181    35.385855    46.336718
Na    16.153930    42.964111    44.393625
O     13.688897    29.979670    32.747637
O      6.168184    37.083001    22.940742
O     42.249419    45.033842     4.075309
O     34.634370    10.805767    39.429264
O      1.794153    19.330368    16.632448
O     27.346743    19.153909    12.341576
O     45.581023    45.715275    11.919927
Si    38.642792    41.910314     6.558961
O     35.798924     7.684940    22.294218
Na    38.269327    13.279204    24.487965
Na    19.619658    42.945859    25.477685
O     18.072808     4.206663     4.399257
Si    31.548572    38.097799    42.209302
P      5.062449    11.235606    12.809636
Si    34.368390     9.465757    32.493286
O     32.630748    27.267207    22.029508
O     41.972142    26.909387    45.963827
O     39.339291    41.912891     8.358179
Na    21.676542     9.263202    14.927956
O     26.764780    11.241406    28.668581
O     39.266690    40.644047    19.097118
Na    13.570149     1.187488     9.909835
O     29.677556    21.905589    26.709200
Na    25.491262    22.408516    22.802645
O     29.655829    35.379047    40.328472
Ca    18.587710    37.065958    12.604099
Si    13.123218    15.626097     8.090347
O     13.293928    12.148187     7.188784
O     11.741475    46.713681    36.848805
Na     2.328947     4.620754    20.869900
Si    25.276210     8.549329    14.999616
Na    37.163565     9.862786     0.850183
O     18.517671     0.876865    23.868511
Si    18.375413    40.924636    45.625206
O      7.339268    32.828772     8.523682
O     20.722247    18.763130    10.750589
O     22.784539    14.232853    23.833975
O      1.602179    20.127755    40.364987
O     32.880384    35.799294    16.292734
Na    26.442299    28.417458     9.827356
O     40.732938    17.708655    34.411645
O      3.491925     6.928478     2.991405
O     37.419057    28.393170    25.820216
O     25.857261    30.735447    14.116984
O     33.771949     0.865878     0.576756
Si    17.474669     4.417877    34.924746
O     29.447708    31.271939    15.803074
O     39.000768     4.870171    34.134107
O     28.064748     1.988744     8.834073
Ca    38.415636    33.357117    38.376994
Ca    32.356310    46.235677    46.393027
O      2.221875    11.008107    20.440498
O     38.861025    14.988389    22.513698
O     46.613671    41.542244    45.444781
O     40.353652     0.675971     9.157733
O     25.957526     6.143455    33.198324
O     44.314588    41.538933    44.751651
Ca     8.863673    42.074389    38.480911
Na     2.192177     3.642690    43.120695
Na    45.587152    15.754912    36.204708
O     39.887657    27.889499    18.223400
Na    13.647719    42.561163    16.198932
O     10.950008    16.107053    11.537057
O     22.882595    38.674840    15.314055
Na    44.370433    27.974302    44.859520
Ca     6.414441     0.166223    32.701578
O      5.222090    45.892077     6.180170
O      2.876482    33.567784    11.708438
Si     6.129114     5.787534    43.378866
Si     4.507869    42.211567    21.315068
O     23.683839    41.638600    22.714451
O     15.802379     9.581133    32.645365
Si    17.375780     8.831221     9.142658
Si     3.369955    39.377086     2.598718
Si    42.536587    27.457739    39.764364
Si    44.925141    33.757768    42.925111
Si    18.335280    11.267321    35.158162
Si    14.774900    36.104329    30.943590
O     20.551227    30.376097    24.782328
O     17.009201     4.782153    36.422325
Ca    46.046312     2.986167    34.087769
O     37.080423    45.497967    12.939182
O     14.860452    18.498024    14.113699
Ca    10.596133    42.979700    42.813554
Na     6.619523    19.444424    20.010022
O     32.777285    21.385479    30.006687
O     24.335184     9.110401    16.179349
O     45.306539    24.735689    38.947338
Si    40.412666    44.374083    16.270106
Ca    19.017971    36.004868    28.540423
O     26.491083     9.984150    19.298930
O      6.512404    36.651902    14.231630
Na    12.489861    20.873276    11.706778
Na     5.884608     9.959113     5.512490
Si     7.123106    32.564476    20.865173
O      8.138487    24.467378    37.711332
O     45.739174    46.480855    35.591517
O      2.923760     9.412085     8.357748
Si     7.183963     5.401068     0.989019
O     37.893076    45.315762    40.662753
O      2.117259    43.105873    17.242874
O     21.569860    29.698038    27.093586
O     37.722722    23.220727     4.704260
O     22.646088    25.804093    35.640711
O      2.570674    26.836202    46.338898
O      2.495873    30.710288    19.477582
O     12.077266    39.584977    18.309516
O     46.396698    35.910993    24.955534
Na    21.013903    31.167302    36.869639
Na     3.611104     2.761834    31.267544
O     34.982756    30.860181    14.709565
Si    20.685489    14.120091    42.952325
Si    24.757788    41.286673    35.568085
O     39.867253    13.571496    20.480036
O      6.828231    28.643489    20.537171
Na    28.827270    46.617090    20.560293
O     12.718995    10.785473    15.915875
Si    14.677519    12.758107     6.121284
Si     5.563032    42.877803    15.036977
Ca    14.909695    42.322375    46.170510
O     39.724493    14.846362    36.610892
O     13.731447    43.837603    12.354580
Na     7.356492    42.851759     3.555726
Si    22.143448    12.485521    15.506326
O     36.280291    42.561237    12.119136
Si    22.173532    10.550192    26.771861
Na     6.731021    38.396590    10.429041
O     38.481358    22.917846    26.872663
Na    17.717413    36.129301    38.873974
O     46.448612    39.738835    27.446760
O     39.724237    28.718653    20.868009
O     19.754804     1.259917    16.280823
Si    15.467357    43.510844     2.271416
O      0.842367    43.514199     4.586816
Na    14.821459    27.189455    22.117117
Si     8.087985    23.724311    46.381834
Ca    18.194118    11.201207    16.300219
Na    30.777629    33.510180     1.026106
Na     9.602029    33.246939     8.937019
O      1.215287    16.716100    36.245503
Si     8.010697    26.420770    26.770579
Ca    26.679463     9.324992    44.579365
O     24.889164    26.625639    25.031488
Ca    27.195865    35.002372    14.865475
Si     3.112726    27.799590     6.836013
Na     5.573067    17.931775    28.694269
O     40.817735    41.937046    20.974124
Na    19.191891    37.283253    20.905791
Si    17.066006    44.822391    46.554402
O     12.808017     2.897054    29.170476
O     21.079328    32.244501    44.286598
O     33.571142    10.857686    32.631224
Na    17.592849    35.911498     0.647976
Na     7.943684    31.924901    44.959119
O     39.121064    43.854662    10.244825
O     20.493848    10.462180    28.711184
O     24.641481    37.019384    30.376340
Na     3.365921    21.495978    39.738792
O      7.333273     7.991533    40.670676
O     20.061370    25.961924    32.333794
Na    37.920709    21.790783    44.635373
Si    36.402282     9.102574    21.826914
O     38.061636    17.460296    45.306474
O     39.701661     1.315810    22.723050
Ca     9.672113    27.311777    14.416197
Ca    14.662591    11.855090     2.976694
O     41.540417    28.729062    16.375389
O     43.613870    45.612535    45.384413
O     13.070258    35.414956    35.272160
O     33.267180    38.018920     2.793977
Na    46.605656    10.451300    34.514980
Na    22.251671    29.674776    23.014856
O     31.225840    39.586415    42.730807
Ca     2.826779    13.626666    39.337793
Si    38.601057    13.812912    21.444695
O     44.199699     6.351467     4.209465
Na     4.456945    28.701792    40.347605
O     40.797799     3.230954     8.901212
O     20.434022    11.063303    20.344557
O     23.053855    36.670718    14.059610
O     42.759672    22.296307     1.284220
O     43.736333     7.019521    24.709060
Si    45.570091     3.775708    30.476309
O     35.373916    30.922697    26.834868
Ca    40.706866    41.285518    17.382695
Si    21.227174    11.590592    11.067873
P     43.423931    23.580581    24.871547
Na    33.262055     8.082336    24.422519
O     41.868173    30.298197     9.949149
Na     4.418431     0.107820     3.991332
O     28.838407     3.282271     6.515200
Ca    11.922791    27.416395     2.633772
Ca     8.758631    16.221245     8.123408
Si    40.528273    34.890998    41.421342
Na     1.385338     0.160072    39.136553
Na    23.964923    42.469058    25.511001
Si    37.458286    43.389757    36.108817
O     28.480891    44.623166    16.206261
Na    27.669401    44.389616    31.164824
O      6.455795    10.588797    13.017788
O     21.090789    42.719740     3.165838
O      7.239171     2.563116    36.637254
Si     4.976870    46.724644    31.131754
Si     8.394218    19.341130    21.038351
Na    37.645818    34.699773     4.209371
Si    35.238781    41.202984    13.006392
Na    22.645236    21.700890     5.873319
Si    11.036769    35.690121    43.493013
P     20.808187    25.580711     6.862669
O      8.535019     5.865772    17.651703
Na    44.498965    42.034480     2.359022
O     28.551915    16.643045    26.916279
O     41.711280     0.182639    25.235253
O     20.972281    35.897253    40.951029
O     22.867713    43.117524    21.166262
O      4.349474    44.295639    15.284061
Na    43.465378    29.588572    19.347727
O     29.574473    25.252537     6.282536
Na     0.107933    37.357539    39.876416
Na    46.479481    21.019583    21.248020
O     39.848579     6.204036    27.174193
O     23.718805     7.691737    46.584012
Ca     2.047355    30.065197    35.769828
O     17.936437    33.531812     0.941748
O     43.438474    22.094960     3.387067
Si    41.319609    14.091702    36.019246
O     38.152889    13.157436    13.737697
P     24.806884    27.756655     1.020978
Ca    11.675338    46.566002    25.659048
O     22.049148    25.877327    27.556717
O      4.703933    23.614907    27.719156
Si    36.195225    20.524814    40.153631
O      5.857522    14.465023    24.468729
O     12.246533    36.875709    40.551149
O     25.490641    36.442278    23.447571
O     15.199789    31.119681    38.345109
Na    37.970734    41.512247    21.037737
Ca    37.797349    27.164733    32.642317
Si    11.498744    34.130914    35.288754
Na    32.053916    40.477839     9.833951
Na    12.975480     8.019880    30.728998
O     43.977410    36.045714    21.927863
O     41.753927     8.296563     0.016647
Ca    43.813408    17.420782    38.672356
O     12.751068    30.455034    15.673854
O     17.094240     9.576021    20.980207
Si     7.269460    40.888634    13.246471
O     26.313068     8.054961    46.407705
O     29.323422    31.477008    18.995084
O     45.062987    44.693230    14.303356
O      2.142870    19.168977     8.346151
Si    12.852609    41.461206     8.773102
Na    15.904189    41.117336    38.546489
O     18.613805    30.517963     7.761011
Ca    30.894447    23.829271     8.933284
Na    22.964474    21.755904     2.997808
Na     9.566144     1.850676    20.179096
O      0.235774    10.495042    22.742228
O     14.138142    30.836291    35.271896
O     33.246969     5.630066     9.423373
O     17.896230    37.796837    32.342813
O      3.666041    10.909491    13.214353
Na    19.632685    40.053929     6.219502
Ca    25.820347     4.947030    44.302150
Na    44.560249     6.184760    23.010655
Ca    15.665706    16.665655    23.450141
P     17.706780    18.012952    15.854210
O     21.075638    36.088213    44.651336
O     27.800269    43.098301    44.750913
Na     7.156459    43.149267    36.407128
Na    17.829145    19.918460    25.489751
Si    11.891016    42.968776    21.253389
O     39.395273    15.509822    38.360245
O     40.543840    24.121186    27.945458
O     33.137308    43.759589    27.177276
O     10.439331    28.403068     7.945003
O      0.391953    10.368916    41.171981
Na    45.833162    46.429827    21.830893
Na    38.888026    28.918155     5.312105
O      4.691081    17.258497     3.301992
O     10.608018    13.238864    26.573259
Si    38.028627    14.890416    37.376429
Si    17.031991    14.705261     7.370947
O     32.238019    12.069601    22.689429
O     15.731316    34.551005     0.685559
Na     8.744502    41.408049    20.390213
Ca    21.449027    12.686336    29.719603
Si    25.093415    20.323000     6.161714
Na     0.642107     3.085283    41.438494
O     23.402291     3.630693    39.347201
O     35.558335    28.820681    41.099419
Na    18.619529    16.950954    28.835438
Ca     9.057119    20.822827    28.122973
O      6.578020    25.810282    26.362118
Ca     2.299384    17.082928     2.279853
O     20.661683    15.719907    43.440822
Na    20.632315    42.144506    30.286198
Si    46.313891     6.621946    20.962884
Si    10.507943    39.595853    18.668972
O     35.552600     9.394001    33.581678
Ca    15.101834    20.689176     9.355319
Na    26.869607    24.528617    13.842675
O     27.726134     2.667369    20.884331
Ca    36.009011    34.206617    41.607530
O     26.431722     3.613545    28.077325
O     23.683171     6.035588    38.435565
O      2.013342    14.195904     8.113097
O     12.677284    34.629661    40.013469
Si    22.265151    43.752034     2.781985
Si     9.625474    45.631771    10.228034
O     16.396061    45.655533    34.518031
Si    30.404080     4.229597    41.951124
O      6.928675     4.794106     7.596584
O     20.682801     8.535208    19.629373
O      4.745832    41.599020    45.939338
Ca    24.026070    40.436157    10.722773
Na     4.813440    23.538960    25.912439
O     37.839247    30.484964    32.221719
O      2.510467    34.950021    38.878540
Ca    35.021172    45.621119     6.598800
O      1.486102    20.080103    23.649411
O     11.718322    30.245361    34.427320
Ca    39.669766    34.509875    13.463046
O     19.128619    36.971944    16.732559
O     25.399133    21.716055    28.901816
O     14.102025     2.462676     2.175674
O     23.062355    23.780473    24.014661
Si     8.960605     1.160891    43.374091
O     11.878666     1.235956    27.433004
Na    27.336186     2.722616    38.945474
O     27.986044    35.719877    42.321533
Na     1.320489     8.918283    21.460548
O      6.347944     9.739989    14.882482
O     37.908434    22.167187    29.301705
O     16.756402    43.181831    24.048247
O     42.926995     5.083138    44.566283
O      1.283540    33.519463    27.534087
Na     4.016481    23.067935    20.453656
O      9.894734    35.956941    13.049655
O     35.347167    14.538114    30.741169
O     12.450739    27.203408    18.861342
Ca    42.399648     2.361478     1.030606
Na    10.521690    17.129685    33.666645
O      6.788966    23.721968    18.694990
O     12.937125    24.958905    30.215169
O      0.337971     7.205708    19.687626
Ca    46.640699    27.237137    18.334791
O      9.543531     1.975947    24.925913
Ca    42.058793     3.974665    41.699651
O      8.587195    40.801755    25.744553
O      1.851535    15.825912    25.551456
O     18.351634    31.532892     5.428156
O     14.429885    26.906013    17.185639
O     33.200324    22.853005     8.697268
O     17.916949    10.632406     1.150188
Na    19.535486    14.369180     8.065541
Na    21.230419    36.551655    15.649626
O     28.727907    20.069747    24.485686
Si    18.841274    39.008925    31.863404
O     25.098957    11.039835     5.479479
O     22.279462    43.336163    12.901616
O      8.448789     8.382422    14.210993
O     37.072362    32.503475    14.818757
O     35.370756     5.491606    31.417335
O     18.465748    42.006220    44.436040
O     19.841996    29.027270    41.241197
O     15.753451     1.154763     9.262260
O     29.030510    15.106330    18.529644
O     12.524519    19.834831     0.621905
Si    14.854711     3.652857     1.395268
O      4.806096     2.901337    45.568291
Si    40.868718    11.863004    28.563589
Si    15.315826    17.746212    32.069825
O      7.916010    18.144346    29.187490
O      2.314294     9.202136     3.698565
O      4.069805    40.115472     1.251192
O     42.090365    24.110820    24.470863
O      4.442525    32.111181    44.735541
Ca    29.800013    18.071469    39.527058
O     37.395784     4.201535    41.309690
O     13.392801    18.059456    11.941243
O     10.980622    10.117897    26.271280
Si    26.246446    18.022387    12.659544
Ca     3.486505    31.125589    17.727973
Si    38.934491     8.247573    19.805403
Na    40.707568    12.195603     9.059271
O     31.189103    38.708216     1.397943
Na    36.535299    26.194052    10.581353
Ca    46.539711    14.825145    39.504865
O      6.140394    29.298824    30.391426
O     41.855240    34.119678    13.089564
O      8.964148    29.800915    46.696732
Si    16.866686    23.979026    34.453156
Si    14.871335    23.594933    40.920930
O     39.623929    18.646428    38.582968
O      4.428178    28.361769     6.097339
O     27.053570     9.382676    42.604744
Ca    43.473352     5.854670    15.136497
Si     6.075976    22.247061    10.611759
O     23.466319    30.259039    13.226240
Ca    19.357603    45.358776     2.832395
O      9.843078    46.011348    34.099685
O     32.029604    30.047060    42.571422
O     42.186562    37.842479    22.525303
O      1.223296    42.072024    31.961802
O      4.491213    39.531501     3.743722
O     17.463085     2.615092    23.118056
Na    17.739802    14.811612    33.427282
Ca    28.644721     3.910825    26.566173
Na     6.860141    16.316617    37.097662
O     43.524156    16.301361     1.509072
O      3.557021     6.158924    43.806681
P     39.550412    24.321950    39.411635
O     18.976802    10.069957    18.400302
Na    26.448930     2.132219     3.979085
O     16.031658     3.065861     0.466651
O     43.184592    28.857660    29.976782
O     31.483135    10.377140     6.117178
Na     7.795435     9.571142    11.310854
Si    24.913563    29.599350    13.476033
O      5.120161    21.275320    19.683271
O     17.465508    39.662464    45.211570
Si    20.171661    36.505058    39.340164
Na    33.046079    32.357750    29.555954
O     13.650047    29.630529    39.883357
Na    12.592139    46.017378    14.288769
Ca    20.932502    27.260456    34.455402
Ca    29.487459    20.280264    28.962571
Si    29.314419    34.947203    41.841433
Na    26.857946    18.476931    26.391039
Si     5.893813     6.721221    32.413656
O      4.868365    29.436289     3.268750
Na    25.551694     7.330150    41.642945
O     39.402858    29.006764    34.103841
Ca    13.835868    26.053047    32.056007
O      8.423055    11.457832     2.287893
O     17.108599    18.488972    17.133148
O     35.476404    35.676119    26.899142
Na    32.109997    46.332410    27.932145
O     18.340041    40.378186    32.546038
O     30.319092    43.218856    36.693426
Na    39.031260     8.102901    35.994199
Si    32.648675    39.189413     1.877736
Si    46.094062    46.067199    42.375456
O     18.812308    11.945728    43.703155
O     13.795274    24.375392    41.829267
O     44.991172    42.747769     0.018927
P      2.215447    13.402991     6.537378
Na     5.418586     2.355036     1.897629
O     16.862920    18.512058    14.732206
Si     0.344308    36.801709    31.092756
O     24.751138    36.868119    32.423646
Si     1.062164     4.211224    33.782228
Na     6.602547     2.918097     9.217254
Ca    42.724310    36.705181    43.424500
O     38.261613     1.222301     5.173889
